Term, ISBN
I-12 Index,470565144
Twist,470565144
 angle of,470565144
 117Two-dimensional stress,470565144
 410. See also Plane stressTwo-force member,470565144
 defined,470565144
 74Two square stress elements,470565144
 429–430maximum in-plane shear stress  element,470565144
 429–430principal stress element,470565144
U,470565144
Ultimate load,470565144
 68Ultimate strengthdefined,470565144
 48for selected materials,470565144
 table,470565144
 708–709Uniaxial,470565144
 defined,470565144
 48Uniformly distributed loads,470565144
 167Unstable equilibrium,470565144
 569–570Unsymmetric bending,470565144
 251–259arbitrary cross sections,470565144
 252–254limitations,470565144
 255neutral axis orientation,470565144
 254principal axes of cross sections,470565144
 255symmetrical cross sections,470565144
 254–255Upset threads,470565144
 38U-shapedcross section,470565144
 301groove,470565144
 261notch,470565144
V,470565144
Virtual internal forces,470565144
 642Virtual work,470565144
 636–641principle of,470565144
 638–641temperature changes and fabrication errors,470565144
 643Virtual-work methodapplied to beams,470565144
 649–657applied to trusses,470565144
 641–649applied to two-bar assembly,470565144
 639–641Volumetric strain,470565144
 481von Mises,470565144
 Richard Edler,470565144
 563von Mises equivalent stress,470565144
 563von Mises yield criterion,470565144
 559W,470565144
Warping of cross sections in shaft due to torsion,470565144
 117Watt,470565144
 defined,470565144
 138Weak axis,470565144
 222Web,470565144
 defined,470565144
 222Wedge-shaped stress element,470565144
 430–431Wheatstone bridge,470565144
 474Wide-flange sections (W-shapes),470565144
 691–694Wide-flange shape beam,470565144
 221–222Wind load,470565144
 57Wood,470565144
 typical properties of,470565144
 710Workdefined,470565144
 608related to axial member,470565144
 634related to flexural member,470565144
 634units of,470565144
 609Work–energy method,470565144
 for single loads,470565144
 633–636Work hardening,470565144
Y,470565144
Yield,470565144
 48Yielding,470565144
 defined,470565144
 43–44Yield point,470565144
 defined,470565144
 43–44Yield strengthdefined,470565144
 44for selected materials,470565144
 table,470565144
 708–709Yield stress,470565144
 59Young’s modulus,470565144
Z,470565144
0.2% offset method for yield strength,470565144
bindex_EVALC.indd   12 20/12/19   2:32 PMIndex I-11,470565144
Stress distributionnormal stress,470565144
 245shear stress,470565144
 289Stress elementdefined,470565144
 407equilibrium of,470565144
 408–409generating,470565144
 410–412Stress invariance,470565144
 428Stress invariants,470565144
 417Stress–strain diagram,470565144
 40–48Stress–strain equations,470565144
 for isotropic materials,470565144
  478–485Stress trajectories,470565144
 531–533Stress transformationdefined,470565144
 416equations,470565144
 422equilibrium method for plane,470565144
 413–415general equations of plane,470565144
 415–421results,470565144
 429–435and sign conventions,470565144
 417–418Strong axis,470565144
 222Structural shapes,470565144
 standard,470565144
 691–702Structural tees (T-shapes),470565144
 697–698Superposition,470565144
 principle,470565144
 590. See also Principle of superpositionSuperposition method,470565144
 357–374applied to propped cantilever beam,470565144
 391applying,470565144
 359–374for combined loadings,470565144
 543for curved bars,470565144
 268–269for statically determinate beams,470565144
 357–374for statically indeterminate beams,470565144
 390–403Support settlement,470565144
 336Symmetry conditions,470565144
T,470565144
Table(s)of deflection and slopes of beams,470565144
 704–705of discontinuity functions,470565144
 198–199of properties of materials,470565144
 708–709of properties of plane figures,470565144
 672of properties of rolled-steel shapes,470565144
 691–702of properties of wood construction materials,470565144
 710Tangential stress,470565144
 518Tee shape,470565144
 223Temperature effects,470565144
 492–494Tensile normal stress,470565144
 437Tensile strain,470565144
 207Tensile stress,470565144
 121Tension forces,470565144
 defined,470565144
 2Tension stress,470565144
 466–468Tension test,470565144
 37–40Theories of failuremaximum-distortion-energy,470565144
 559–566maximum-normal-stress,470565144
 563–564maximum-shear-stress,470565144
 558–559Mises equivalent stress,470565144
 563Mohr’s failure criterion,470565144
 564–565Thermal expansioncoefficient,470565144
 for selected materials,470565144
 table,470565144
 708–709coefficient of,470565144
 35Thermal strain,470565144
 35Thermal stress,470565144
 102Thick-walled cylinderscircumferential stress in,470565144
 512deformations in,470565144
 517–518radial stress in,470565144
 512stress in,470565144
 509–517Thick-walled pressure vesselsdeformations in,470565144
 517–518equations,470565144
 714–715stress in,470565144
 509–517Thin-walled cylindrical pressure  vessels,470565144
 502–505stresses on the inner surface,470565144
 505stresses on the outer surface,470565144
 504–505Thin-walled pressure vessels,470565144
 499–500cylindrical,470565144
 502–506equations,470565144
 714spherical,470565144
 500–502strains in,470565144
 505–506Thin-walled sectionsclosed,470565144
 308–319shear flow in,470565144
 305–308shear stress in,470565144
 303–305torsion,470565144
 161–163Thin-walled spherical pressure vessels,470565144
 500–502stresses on the inner surface,470565144
 502stresses on the outer surface,470565144
 501–502Three-dimensional stress analysisand Mohr’s circle,470565144
 458Torque,470565144
 defined,470565144
 115Torque–rotation diagram,470565144
 615Torque–twist relationship,470565144
 152Torsionof circular shafts,470565144
 115–132equations for,470565144
 711–712of noncircular solid sections,470565144
 158–161of rectangular bars,470565144
 158–161of thin-walled hollow sections,470565144
 161–163Torsional deformations,470565144
 614–616Torsional loading,470565144
 155–157Torsional shear strainin circular sections,470565144
 117–118in noncircular solid sections,470565144
 158–161Torsional shear stressin circular sections,470565144
 118–120in noncircular sections,470565144
 158–161Transformation equationsfor plane strain,470565144
 461–465of plane stress,470565144
 415–421for shear strain,470565144
 463and sign conventions,470565144
 417–418for three-dimensional stress,470565144
 452Transformed cross section,470565144
 236–240defined,470565144
 238Transformed section,470565144
 238Transformed-section method,470565144
 236–244Transverse deformations,470565144
 208Transverse load,470565144
 205Transverse shear stress,470565144
 281Transverse strain,470565144
 49Tresca,470565144
 H. E.,470565144
 558Tresca criterion,470565144
 558Tresca–Guest yield surface,470565144
 558Triaxial stress,470565144
 505True stress,470565144
bindex_EVALC.indd   11 20/12/19   2:32 PMI-10 Index,470565144
Statically indeterminate memberswith axial loads,470565144
 88–101with torsional loads,470565144
 142–155Stem,470565144
 defined,470565144
 223Step function,470565144
 194Stiffness,470565144
 575Stiffness measure,470565144
 42Strainabsolute maximum shear,470565144
 475axial,470565144
 560compressive,470565144
 28defined,470565144
 26flexural,470565144
 207–208in-plane shear,470565144
 466–468lateral,470565144
 49longitudinal,470565144
 49normal,470565144
 26out-of-plane direction,470565144
 475plane,470565144
 470–472pressure vessels,470565144
 505–506principal,470565144
 466–468principal,470565144
 by Mohr’s circle,470565144
 470–472shear,470565144
 158–160tensile,470565144
 207in thin-walled pressure vessels,470565144
 505–506torsional shear,470565144
 158–160total,470565144
 35transverse,470565144
 49units,470565144
 32Strain element,470565144
 defined,470565144
 459Strain energy,470565144
 609–610for axial loadings,470565144
 559–563elastic,470565144
 560–561Strain-energy density,470565144
 610–612for normal stress,470565144
 610–611for shear stress,470565144
 612Strain gages,470565144
 474–475Strain hardening,470565144
 48Strain invariance,470565144
 464Strain rosettes,470565144
 475Strain transformation equations,470565144
 461–463vs. stress transformation equations,470565144
 463Strain transformation results,470565144
  presentation of,470565144
 468–469Strengthultimate,470565144
 48ultimate,470565144
 of selected materials,470565144
 table,470565144
 708–709yield,470565144
 44yield,470565144
 of selected materials,470565144
 table,470565144
 708–709Strength limit states,470565144
 69Stress. See also specific types of stressesabsolute maximum shear,470565144
 427–428allowable,470565144
 61average normal,470565144
 110average shear,470565144
 162axial,470565144
 601bearing,470565144
 60bending,470565144
 212biaxial,470565144
 563circumferential,470565144
 509–525compression,470565144
 600compressive,470565144
 600critical buckling,470565144
 574–575defined,470565144
 2Euler buckling,470565144
 574–575flexural,470565144
 234–244at general point in an arbitrarily loaded body,470565144
  406–408hoop,470565144
 502–505hydrostatic,470565144
 561in-plane shear,470565144
 505limitations,470565144
 246longitudinal,470565144
 516–517maximum normal,470565144
 563–564maximum on cross sections,470565144
 214–215maximum shear,470565144
 541–543maximum shear,470565144
 by Mohr’s circle,470565144
 439maximum shear stress,470565144
 439minimum normal stress,470565144
 423nominal,470565144
 260normal,470565144
 493compression,470565144
 600compressive,470565144
 600defined,470565144
 2–3and hydrostatic stress state,470565144
 482maximum,470565144
 423on maximum in-plane shear stress surfaces,470565144
 427minimum,470565144
 423on oblique plane,470565144
 452–453sign convention for,470565144
 437stress invariance,470565144
 417stress invariants,470565144
 417tensile,470565144
 121tension,470565144
 466–468plane (See Plane stress)principal,470565144
 422–428defined,470565144
 423in-plane,470565144
 425magnitude of,470565144
 453–456by Mohr’s circle,470565144
 435–451orientation of,470565144
 453–456radial,470565144
 510–517residual,470565144
 593resultant,470565144
 452–453resultant forces produced by bending,470565144
 272–277shear (See Shear stress)sign conventions,470565144
 408tangential,470565144
 518tensile,470565144
 121thermal,470565144
 102in thick-walled cylinders,470565144
 509–517torsional shear,470565144
 158–160triaxial,470565144
 561true,470565144
 45two-dimensional,470565144
 410units,470565144
 3–4yield,470565144
 59Stress concentrationunder axial loadings,470565144
 110–114defined,470565144
 259under flexural loadings,470565144
 259–262under torsional loadings,470565144
 155–157Stress-concentration factorsfor circular shafts,470565144
 155–157for flat bars,470565144
 261Stress cubic equation,470565144
bindex_EVALC.indd   10 20/12/19   2:32 PMIndex I-9,470565144
in thin-walled sections,470565144
 305–308in thin-walled tubes,470565144
 161–163Shear forcedefined,470565144
 273diagrams,470565144
 194–204equations for,470565144
 712graphical method for,470565144
 176–193locating key points on,470565144
 183relationship to load and bending moment,470565144
 176–182rules for,470565144
 181–182sign conventions for,470565144
 168steps for constructing,470565144
 182–183Shear-force equation,470565144
 203Shear keys,470565144
 11–12Shear modulusdefined,470565144
 49relationship to elastic modulus,470565144
 480for selected materials,470565144
 table,470565144
 708–709Shear strain,470565144
 460–466absolute maximum,470565144
 475defined,470565144
 32maximum in-plane,470565144
 466–469measuring experimentally,470565144
 32relationship to shear stress,470565144
 480sign conventions for,470565144
 464torsionalin circular sections,470565144
 117–118of noncircular solid sections,470565144
 158–161transformation equations,470565144
 463Shear stress,470565144
 530–533. See also Stressabsolute maximum,470565144
 427–428in beams,470565144
 280–282of circular cross section,470565144
 288–289of rectangular cross section,470565144
 284–288commutative,470565144
 409defined,470565144
 408direct shear,470565144
 8–9equality on perpendicular planes,470565144
 20equilibrium on,470565144
 409formula,470565144
 277–294horizontal,470565144
 530–531in circular cross sections,470565144
 288–289in flanged sections,470565144
 289in rectangular sections,470565144
 284–285in-plane,470565144
 505magnitude of,470565144
 456–458maximum,470565144
 513maximum in-plane,470565144
 425–427nominal,470565144
 156on oblique plane,470565144
 452–453orientation of,470565144
 456–458out-of-plane,470565144
 501–505positive vs. negative,470565144
 408on principal planes,470565144
 424relationship to shear strain,470565144
 480sign convention,470565144
 437strain-energy density for,470565144
 612in thin-walled members,470565144
 302–319torsionalin circular sections,470565144
 118–120in noncircular sections,470565144
 158–161transformation equations,470565144
 416transverse,470565144
 532in circular cross sections,470565144
 288–289in flanged sections,470565144
 289in rectangular sections,470565144
 284–285units of,470565144
 611in webs of flanged beams,470565144
 289Shell,470565144
 500Shell structures,470565144
 500Short columns,470565144
 593–594Short leg,470565144
 223Shrink-fit,470565144
 521Sign conventionfor angle of twist,470565144
 125for beam deflections,470565144
 334for bending moments,470565144
 213bending-movement,470565144
 334for curvature,470565144
 208for deformation,470565144
 75for flexural strain,470565144
 207–208for internal bending moment,470565144
 213for internal shear force,470565144
 168for internal torques,470565144
 124–125for Mohr’s circle (stress),470565144
 437for normal strains,470565144
 464normal stress,470565144
 417for normal stresses,470565144
 437for shear-force and bending-moment diagrams,470565144
 168for shear strains,470565144
 464shear stress,470565144
 418for shear stresses,470565144
 437and stress transformation,470565144
 417–421for torsional rotation angles,470565144
 125and transformation equations,470565144
 417–418Significant digits,470565144
 4Similar triangles,470565144
 29Simple beam,470565144
 defined,470565144
 167Simply supported beamdefined,470565144
 167deflection formulas,470565144
 704Single shear,470565144
 defined,470565144
 8Singularity functions,470565144
 194for concentrated forces,470565144
 195–196for concentrated moments,470565144
 195–196Slenderness ratio,470565144
 defined,470565144
 583Slipping,470565144
 558Snow load,470565144
 57Solid circular cross section,470565144
 288–289Solid circular cylinderexternal pressure on,470565144
 516radial displacement for external  pressure  on,470565144
 518Spherical pressure vessels,470565144
 500–502Mohr’s circle for,470565144
 501–502Stability failure,470565144
 568Stable beam,470565144
 378Stable equilibrium,470565144
 568–570State of stress,470565144
 407Statically indeterminate beamsdefined,470565144
 378by integration methods,470565144
 379–384overview,470565144
 377and superposition method,470565144
 390–403types of,470565144
 378–379use of discontinuity functions for,470565144
bindex_EVALC.indd   9 20/12/19   2:32 PMI-8 Index,470565144
Principal moments of inertia,470565144
 682–686by Mohr’s circle,470565144
 686–689Principal planes,470565144
 422–423of bending,470565144
 255of cross sections,470565144
 255defined,470565144
 423shear stress on,470565144
 424Principal strains,470565144
 466–468by Mohr’s circle,470565144
 470–472Principal stresses,470565144
 422–428. See also Stressdefined,470565144
 423general calculation procedures,470565144
 532–533in-plane,470565144
 425magnitude of,470565144
 453–456by Mohr’s circle,470565144
 435–451orientation of,470565144
 453–456Principle of superposition,470565144
 590applied to beam deflections,470565144
 358conditions valid for beam deflections,470565144
 358defined,470565144
 357Prismatic,470565144
 defined,470565144
 81Prismatic beams of arbitrary cross section,470565144
 252–254Probability concepts,470565144
 65–68Product of inertia,470565144
 680–682defined,470565144
 253parallel-axis theorem for,470565144
 596in unsymmetrical bending,470565144
 253Projected area,470565144
 60Propertiesof an area,470565144
 671–689angle shapes (L shapes),470565144
 701–702channel sections,470565144
 695–696hollow structural sections (HSS shapes),470565144
 699–700metals,470565144
 708–709of plane figures,470565144
 672wood,470565144
 710W-shapes (wide-flange sections),470565144
 691–694WT-shapes,470565144
 697–698Proportional limit,470565144
 40–41Propped cantilever beam,470565144
 378superposition method applied to,470565144
 391Punching shear,470565144
 12Pure bending,470565144
Q,470565144
Q section property,470565144
 295first moment of area,470565144
 282–283identifying proper area for,470565144
R,470565144
Radial displacement,470565144
 517–518for external pressure,470565144
 518for internal pressure only,470565144
 518Radial interference,470565144
 522Radial stress,470565144
 510–517in thick-walled cylinder,470565144
 512Radius of curvature,470565144
 defined,470565144
 207Radius of gyration,470565144
 defined,470565144
 574Ramp function,470565144
 194Rankine,470565144
 W. J. M.,470565144
 563Rankine’s theory,470565144
 563Recovery,470565144
 elastic,470565144
 43Rectangular cross sections,470565144
 531Redundant reactions,470565144
 390Redundants,470565144
 378Released beam,470565144
 390Reliability analysis,470565144
 66Residual strain,470565144
 43Residual stress,470565144
 593Resistance,470565144
 in LRFD,470565144
 65Resistance strain gage,470565144
 474Restoring moment,470565144
 569Resultant forces produced by bending stresses,470565144
  272–277Resultant stress,470565144
 452–453Rigid bar,470565144
 defined,470565144
 28Rigid-bar transverse deflections,470565144
 29Rigid-body displacement,470565144
 defined,470565144
 26Rigid element,470565144
 defined,470565144
 4Rigidity,470565144
 modulus ofdefined,470565144
 118relationship to elastic modulus,470565144
 49for selected materials,470565144
 table,470565144
 708–710Roller supports,470565144
 defined,470565144
 166Rosette analysis,470565144
 473–475Rotation,470565144
 angle of,470565144
 333Rotation angle,470565144
 134–137sign convention for,470565144
 125–132Rotation speed,470565144
 134rpm,470565144
 defined,470565144
 139S,470565144
Safetyaddressing,470565144
 58factor of,470565144
 59in AISC column formulas,470565144
 593–594Saint-Venant’s Principle,470565144
 246Saint-Venant’s theory of torsion,470565144
 158Secant formula,470565144
 600Second moment of area,470565144
 675Section modulus,470565144
 230–233Section plane,470565144
 defined,470565144
 2Serviceability limit states,470565144
 69Service loads,470565144
 defined,470565144
 58Shaft,470565144
 defined,470565144
 115Shear,470565144
 directdouble,470565144
 10punching,470565144
 12single,470565144
 8Shear area,470565144
 9Shear centerfor channel section,470565144
 320–323defined,470565144
 319location,470565144
 determination of,470565144
 323of thin-walled open sections,470565144
 319–330Shear coupling coefficients,470565144
 495Shear distributionin rectangular cross section,470565144
 284–285shear stress in,470565144
 290Shear flowin built-up beams,470565144
 294–302in closed sections,470565144
 308–309defined,470565144
 295due to torsion,470565144
 161–163formula,470565144
 295in open sections,470565144
bindex_EVALC.indd   8 20/12/19   2:32 PMIndex I-7,470565144
N,470565144
Necking,470565144
 48Negative area,470565144
 673Negative internal bending moment,470565144
 213Net section,470565144
 111Neutral axis,470565144
 295for curved bars,470565144
 264–265inclination of,470565144
 254location,470565144
 245orientation,470565144
 254Neutral equilibrium,470565144
 579Neutral surface,470565144
 236defined,470565144
 209location of,470565144
 210–211Nominal depth,470565144
 222–223Nominal stress,470565144
 260Noncircular memberstorsion of solid,470565144
 158–161torsion of thin-walled hollow,470565144
 161–163Nonlinear strain,470565144
 263Nonuniform bending,470565144
 215Normal strainaverage,470565144
 27Cartesian components,470565144
 460defined,470565144
 26flexural,470565144
 207–208maximum and minimum,470565144
 466–468measuring experimentally,470565144
 28out-of-plane,470565144
 485at a point,470565144
 27in pressure vessels,470565144
 505–506principal,470565144
 466–468sign convention,470565144
 464transformation,470565144
 461–465Normal stress,470565144
 406. See also Stressaxial,470565144
 72–73in beams,470565144
 208–220compressive,470565144
 3defined,470565144
 2–3eccentric axial load,470565144
 244flexural,470565144
 208–212and hydrostatic stress state,470565144
 482location of neutral surface,470565144
 210–211maximum and minimum,470565144
 423on maximum in-plane shear stress surfaces,470565144
 427moment-curvature relationship,470565144
 211–212nominal,470565144
 110on oblique plane,470565144
 452–453in pressure vessels,470565144
 500–502Saint-Venant’s principle,470565144
 72–74sign convention for,470565144
 437stress invariance,470565144
 417stress invariants,470565144
 417and temperature changes,470565144
 492tensile,470565144
 3and volume changes,470565144
 480–482Notch,470565144
 260Notional failure rate,470565144
O,470565144
Offset method for yield strength,470565144
 44Orthotropic materials,470565144
 494–497Out-of-plane direction,470565144
 strains in,470565144
 475Out-of-plane shear stress,470565144
 501–505Overhanging beam,470565144
 defined,470565144
 167Overload,470565144
 defined,470565144
 58P,470565144
Parallel-axis theoremdefined,470565144
 676for products of inertia,470565144
 596Percent elongationdefined,470565144
 47of selected materials,470565144
 table,470565144
 708–709Percent reduction in area,470565144
 47Perfectly plastic,470565144
 44Permanent set,470565144
 43Pin-ended columns,470565144
 570–578Pinned-pinned column,470565144
 587–588Euler buckling load for,470565144
 581Pin support,470565144
 defined,470565144
 165Plane of bendingdefined,470565144
 251loads are applied in,470565144
 319longitudinal,470565144
 319Plane strain,470565144
 460–473equations,470565144
 713–714transformation of,470565144
 461–465Plane stress,470565144
 517. See also  Stressdefined,470565144
 410equations,470565144
 713for Mohr’s circle,470565144
 435–451transformation equations,470565144
 416–417transformationsequilibrium method for,470565144
 413–415general equations of,470565144
 415–421Plastic behavior,470565144
 43Plastic deformation,470565144
 43Poisson’s ratio,470565144
 481–482and Lamé solution,470565144
 511–512major,470565144
 495minor,470565144
 495Polar moment of inertiadefined,470565144
 675parallel-axis theorems for,470565144
 676Positive bending moment,470565144
 266Positive internal bending moment,470565144
 213Positive internal shear force,470565144
 168Positive slope,470565144
 177Potential energy,470565144
 607Powerdefined,470565144
 138units,470565144
 138Power transmission shafts,470565144
 138–139Press-fit,470565144
 521Pressurecontact,470565144
 522hydrostatic,470565144
 482internal and external,470565144
 512–517Pressure vessels,470565144
 499–525thin walled,470565144
 499–500Principal angles,470565144
 423Principal axescross sections,470565144
 255defined,470565144
bindex_EVALC.indd   7 20/12/19   2:32 PMI-6 Index,470565144
Limit states,470565144
 69Linearly distributed loads,470565144
 167Live load,470565144
 57Loadcentric,470565144
 19centric axial,470565144
 244combinations,470565144
 68–69concentrated,470565144
 167critical buckling,470565144
 575dead,470565144
 56–57defined,470565144
 56diagram (See Load diagram)distributed,470565144
 167eccentric axial,470565144
 244Euler buckling,470565144
 573–574live,470565144
 57punching shear,470565144
 12service,470565144
 58sheardouble,470565144
 10punching,470565144
 12single,470565144
 8snow,470565144
 57torsional,470565144
 155–157transverse,470565144
 205types of,470565144
 56–57ultimate,470565144
 68wind,470565144
 57Load and resistance factor design (LRFD),470565144
  65–69Load–deflection diagram,470565144
 590Load–deformation diagram,470565144
 609Load–deformation plot,470565144
 42Load diagram,470565144
 178steps for constructing,470565144
 182Load equations,470565144
 348–350Load factor,470565144
 68Load functionsusing discontinuity functions,470565144
 196–200Local instability of columns,470565144
 595Long columns,470565144
 593–595Longitudinal axis,470565144
 206Longitudinal plane of symmetry,470565144
 206Longitudinal strain,470565144
 49Longitudinal stress,470565144
 516–517in cylinder with closed ends,470565144
 516–517Long leg,470565144
 223Low-velocity impact,470565144
 620LRFD (load and resistance factor design),470565144
  65–69Lüder’s lines,470565144
M,470565144
Macaulay brackets,470565144
 194Macaulay functionscanceling,470565144
 197constants of integration,470565144
 196graphs of,470565144
 195integrals of,470565144
 196ramp function,470565144
 194step function,470565144
 194Major diameter,470565144
 156Major Poisson’s ratio,470565144
 495Materialsselected properties,470565144
 table,470565144
 708–710Matrix,470565144
 in composite materials,470565144
 495Maximum-distortion-energy theory of failure,470565144
 559–566Maximum in-plane shear strain,470565144
 466–469Maximum in-plane shear stressmagnitude,470565144
 425–426normal stresses on,470565144
 427orientation of,470565144
 425Maximum normal stress,470565144
 499Maximum-normal-stress theory of failure,470565144
 563–564Maximum shear stress,470565144
 513Maximum stress,470565144
 512–516for external pressure only,470565144
 516for internal pressure only,470565144
 514–515Mechanics of materials,470565144
 1–2Median line,470565144
 thin-walled tubes,470565144
 162Method of sections,470565144
 defined,470565144
 2Method of superposition. See  Superposition methodMicrostrain,470565144
 defined,470565144
 27Minimum normal stress,470565144
 423Minor diameter,470565144
 156Minor Poisson’s ratio,470565144
 495Mises equivalent stress,470565144
 563Mode shape,470565144
 573Modular ratio,470565144
 238Modulus,470565144
 defined,470565144
 482Modulus of elasticitydefined,470565144
 41–42Hooke’s Law and,470565144
 49and Lamé solution,470565144
 511–512relationship to shear modulus,470565144
 480for selected materials,470565144
 table,470565144
 708–710Modulus of resilience,470565144
 611Modulus of rigiditydefined,470565144
 49relationship to elastic modulus,470565144
 49for selected materials,470565144
 table,470565144
 708–710Modulus of toughness,470565144
 611Mohr,470565144
 Otto Christian,470565144
 564Mohr’s circleapplication of,470565144
 458basic construction of,470565144
 437–440for cylindrical pressure vessels,470565144
 504–505equation,470565144
 derivation of,470565144
 436for principal moments of inertia,470565144
 686–689for spherical pressure vessels,470565144
 501–502for strains,470565144
 470–472for stresses,470565144
 435–451and three-dimensional stress  analysis,470565144
 458Mohr’s failure criterion,470565144
 564–565applied to a plane stress state,470565144
 564–565Moment arm,470565144
 211Moment connection,470565144
 166Moment–curvature equation,470565144
 212Moment–curvature relationship,470565144
 332in beams of two materials,470565144
 235in differential equation for column buckling,470565144
 579Moment of inertia,470565144
 675–679circular cross sections,470565144
 550defined,470565144
 211Moment–rotation angle diagram,470565144
bindex_EVALC.indd   6 20/12/19   2:32 PMIndex I-5,470565144
Flexure formula,470565144
 712Force–deformation relationship,470565144
 95Force-fit,470565144
 521Force–temperature–deformation  relationship,470565144
 102Fracture stress,470565144
 defined,470565144
 48Free-body diagram (FBD) 179–180,470565144
 337–338for plane stress transformations,470565144
 414for shear stresses on oblique planes of shafts,470565144
 120–122for stresses in cylindrical pressure vessels,470565144
 503for stresses in spherical pressure vessels,470565144
 500for stresses in thick-walled cylinders,470565144
 510for stresses on inclined planes,470565144
 17–20Frequency,470565144
 shaft rotation,470565144
 139FS (factor of safety),470565144
G,470565144
Gage factor (GF),470565144
 474Gage length,470565144
 50Gage pressures,470565144
 501Gear pitch,470565144
 134Gear ratio,470565144
 134Gears,470565144
 133–134General calculation proceduresfor maximum shear stress in a beam,470565144
 532–533for principal stresses in a beam,470565144
 532–533General combined loadings,470565144
 540–543calculation procedures,470565144
 541–543Generalized Hooke’s law,470565144
 474equations,470565144
 714for isotropic materials,470565144
 478–485and Lamé solution,470565144
 511–512for orthotropic materials,470565144
 494–497and temperature effects,470565144
 492–494General state of stress,470565144
 452–458Geometry-of-deformation equationfor axial members,470565144
 106for torsion members,470565144
 152Graphical method,470565144
 defined,470565144
 182Groove,470565144
 260–261Guest,470565144
 J. J.,470565144
 558Gyration,470565144
 radius of,470565144
 defined,470565144
H,470565144
Hertz (Hz),470565144
 defined,470565144
 139High-velocity impact,470565144
 620Histogramof load effects,470565144
 65–66resistance,470565144
 66Hollow circular cross section,470565144
 289Hollow structural sections (HSS shapes),470565144
 699–700Homogeneous material,470565144
 defined,470565144
 81Hooke’s law,470565144
 474for biaxial state of stress,470565144
 484–485generalized,470565144
 for orthotropic materials,470565144
 494–497for general state of stress,470565144
 478–485for plane state of stress,470565144
 484–485for shear stress,470565144
 49and temperature effects on  generalized,470565144
 492–494for triaxial state of stress,470565144
 478–482for uniaxial state of stress,470565144
 49Hoop stress (circumferential stress),470565144
 502Horizontal deflection,470565144
 623Horizontal shear stress,470565144
 284–285Horsepower,470565144
 defined,470565144
 138HSS Shapes (Hollow Structural  Sections),470565144
 699–700Huber,470565144
 M. T.,470565144
 559Huber–von Mises–Hencky theory,470565144
 563Hydrostatic pressure,470565144
 482Hydrostatic stress,470565144
 561Hydrostatic stress state,470565144
 482Hz (Hetrz),470565144
 defined,470565144
 139I,470565144
Ideal columnbuckling of,470565144
 571defined,470565144
 570Impact,470565144
 defined,470565144
 57Impact factor,470565144
 622for freely falling weight,470565144
 622for weight moving horizontally,470565144
 623Impact forcefor freely falling weight,470565144
 622for weight moving horizontally,470565144
 623Impact load,470565144
 620–633of freely falling weight,470565144
 620–623of horizontally moving weight,470565144
 623Inclination of neutral axis,470565144
 254Indeterminacy,470565144
 degree of static,470565144
 378Inelastic strain,470565144
 42Inelastic strain energy,470565144
 610Inertia,470565144
 moment,470565144
 675–679Infinitesimal element,470565144
 480Inflection point,470565144
 582In-plane principal stresses,470565144
 425In-plane shear stress,470565144
 505Integration methods,470565144
 334–335double-integration method,470565144
 337–347statically indeterminate beams,470565144
 379–384Interaction formula,470565144
 601–602Interaction method,470565144
 601–602Interference fits,470565144
 520–522Intermediate columns,470565144
 593–595Internal force,470565144
 244Internal pressure,470565144
 517maximum stresses for,470565144
 514–515radial displacement for,470565144
 518Internal torque diagram,470565144
 125Internal work,470565144
 609Invariance,470565144
 464Isotropic materialsdefined,470565144
 35generalized Hooke’s law,470565144
J,470565144
Joint displacement,470565144
K,470565144
Keys,470565144
 shear,470565144
L,470565144
Lamé,470565144
 Gabriel,470565144
 509Lamé solution,470565144
 511–512Lateral bracing,470565144
 584–585Lateral strain,470565144
 49Legs,470565144
bindex_EVALC.indd   5 20/12/19   2:32 PMI-4 Index,470565144
Ductile materials,470565144
 558–563maximum-distortion-energy theory,470565144
 559–566maximum-shear-stress theory,470565144
 558–559Mises equivalent stress,470565144
 563Ductility,470565144
 45–47defined,470565144
 39measures,470565144
 47of selected materials,470565144
 table,470565144
 708–709Dynamic force,470565144
 620Dynamic load,470565144
E,470565144
Eccentric axial load,470565144
 244bending due to,470565144
 244–251normal stresses due to,470565144
 245Eccentricity,470565144
 600–606Eccentricity ratio,470565144
 591–592Eccentric loading,470565144
 600–606Effective column length,470565144
 581–583Effective-length concept,470565144
 581–587Effective length factors,470565144
 583Effective-slenderness ratio,470565144
 defined,470565144
 593–595Elastic behavior,470565144
 defined,470565144
 48Elastic curvedefined,470565144
 332deflection,470565144
 derivatives of,470565144
 334–335differential equations,470565144
 332–335for columns,470565144
 579–580Elastic flexure formula,470565144
 212Elastic hysteresis,470565144
 560Elasticitydefined,470565144
 41theory of,470565144
 112Elastic limit,470565144
 defined,470565144
 43Elastic modulusdefined,470565144
 41–42Hooke’s Law and,470565144
 49and Lamé solution,470565144
 511–512relationship to shear modulus,470565144
 478–480for selected materials,470565144
 table,470565144
 708–710Elastic recovery,470565144
 43Elastic strain,470565144
 defined,470565144
 42Elastic strain energyfor axial deformation,470565144
 613–614for axial loading,470565144
 560due to distortion,470565144
 562due to hydrostatic stress,470565144
 559–562due to volume change,470565144
 561–562for flexural deformation,470565144
 616–619for torsional deformation,470565144
 614–616for triaxial loading,470565144
 561Elastic torsion formula,470565144
 defined,470565144
 120Elastoplastic material,470565144
 44Electrical-resistance strain gages,470565144
 473–475Elongationaxially loaded members,470565144
 74–81Elongation,470565144
 percentdefined,470565144
 47of selected materials,470565144
 table,470565144
 708–709Empirical column formulas,470565144
 592End conditions,470565144
 for columns,470565144
 583Energy,470565144
 units of,470565144
 609Engineering stress,470565144
 45Epoxy materials,470565144
 495–497Equation(s)of elastic curve,470565144
 332load,470565144
 348–350of plane stress transformation,470565144
 415–421shear-force,470565144
 348–350stress transformation,470565144
 422Equilibrium,470565144
 in cylinders,470565144
 509–511Equivalent beam,470565144
 234–236Equivalent static load,470565144
 624Euler buckling load,470565144
 573–574Euler buckling stress,470565144
 574–575Euler’s formula,470565144
 573Extensometer,470565144
 38External pressure,470565144
 512–517maximum stresses for,470565144
 516radial displacement for,470565144
 518on solid circular cylinder,470565144
 516External work,470565144
F,470565144
Fabricated (built-up) beams,470565144
 shear in,470565144
 294–300Factor of safety (FS),470565144
 59Failure,470565144
 defined,470565144
 59Failure diagramfor maximum-distortion-energy,470565144
 562for maximum-shear-stress theory,470565144
 559Failure theoriesmaximum-distortion energy,470565144
 559–566maximum-normal-stress,470565144
 563–564maximum-shear-stress,470565144
 558–559Mises equivalent stress,470565144
 563Mohr’s Failure Criterion,470565144
 564–565Fastener force–spacing relationship,470565144
 296Fasteners,470565144
 295–296Fastener stress–spacing relationship,470565144
 296Fiber-reinforced epoxy materials,470565144
 496Fibers,470565144
 longitudinal,470565144
 206Fillets,470565144
 593First buckling mode,470565144
 573First moment of area,470565144
 282–283locating beam neutral surface,470565144
 210locating centroid of area,470565144
 671in parallel-axis theorem,470565144
 676Q section property,470565144
 295Fixed-end beam,470565144
 379Fixed-fixed beam,470565144
 379Fixed-pinned column,470565144
 579critical buckling load for,470565144
 582differential equation for,470565144
 580Fixed support,470565144
 defined,470565144
 166Flange,470565144
 defined,470565144
 222Flanged cross sections,470565144
 531Flexural deformation,470565144
 616–619Flexural loadingcombined with centric loading,470565144
 244–251combined with torsional loading,470565144
 540–556Flexural rigidity of beams,470565144
 212Flexural strains,470565144
 207–208Flexural stressesin beams of homogeneous materials,470565144
 208–220in beams of two materials,470565144
 234–244Flexure,470565144
bindex_EVALC.indd   4 20/12/19   2:32 PMIndex I-3,470565144
Composite areascentroid of,470565144
 673defined,470565144
 671moment of inertia of,470565144
 676Composite beams,470565144
 234–244Compression force,470565144
 defined,470565144
 2Compression stress,470565144
 600Compressive normal stress,470565144
 437Compressive stress,470565144
 600Concentrated loads,470565144
 167–170regions of,470565144
 179–180Concentrated moments,470565144
 638Concept of stress,470565144
 413Conservation of energyapplied to axial deformation,470565144
 610applied to impact load,470565144
 621applied to torsional deformation,470565144
 614–616defined,470565144
 633Constitutive relationships,470565144
 88Contact pressure,470565144
 522tube and jacket of different materials,470565144
 522Continuity conditions,470565144
 337Continuous beam,470565144
 379Contraction,470565144
 75Cosines,470565144
 456–457Coulomb’s theory,470565144
 558Critical buckling load,470565144
 575Critical buckling stress,470565144
 574–575Critical load,470565144
 573–574Cross section,470565144
 2–3Curvature,470565144
 332defined,470565144
 208radius of,470565144
 207Curved bars,470565144
 263–270Cylinders,470565144
 520–522with closed ends,470565144
 longitudinal stress  in,470565144
 516–517shrink fitted on a solid shaft,470565144
 522Cylindrical pressure vessels,470565144
 502–505Mohr’s circle for,470565144
D,470565144
Dead loads,470565144
 56–57Deflection,470565144
 beamsformulas for cantilever beams,470565144
 705formulas for simply supported beams,470565144
 704by integration methods,470565144
 334–335by integration of load equations,470565144
 348–350and integration of moment equation,470565144
 336–347by integration of shear-force  equations,470565144
 348–350by superposition methods,470565144
 357–374Deflection curve,470565144
 205Deformationaxial,470565144
 613–614in circular shafts,470565144
 122–124circumferential,470565144
 517–518in curved bars,470565144
 264defined,470565144
 26diagram,470565144
 559–560flexural,470565144
 616–619and hydrostatic stress state,470565144
 479–482plastic,470565144
 43radial,470565144
 511–512in thick-walled cylinders,470565144
 517–522torsional,470565144
 614–616Degree of static indeterminacy,470565144
 378Derivatives of elastic curve deflection,470565144
 334–335Designallowable stress,470565144
 58–59beam,470565144
 230–233columnAISC specifications,470565144
 593–594Aluminum Association  specifications,470565144
  594–595formulas for,470565144
 592–600NDS,470565144
 595load and resistance factor,470565144
 65–69Destabilizing moment,470565144
 569Diagramaxial-force,470565144
 78beam deflection,470565144
 334–335bending-moment,470565144
 167–204deformation,470565144
 559–560failure,470565144
 562free-body,470565144
 179–180internal torque,470565144
 125load-deflection,470565144
 590load–deformation,470565144
 609moment–rotation angle,470565144
 617rotation angle,470565144
 125shapes,470565144
 relationships among,470565144
 185–192shear-force,470565144
 168–176stress–strain,470565144
 40–48torque–rotation,470565144
 615Differential equation of the elastic curvefor beams,470565144
 332–335for columns,470565144
 579–580Digits,470565144
 significant,470565144
 4Dilatation,470565144
 482Direction cosines,470565144
 456–457Discontinuity expressions,470565144
 196–204Discontinuity functionsapplications of,470565144
 197–204constants of integration,470565144
 196–197integrals of,470565144
 196–197Macaulay functions,470565144
 194–195shear-force and bending-moment diagrams,470565144
  194–200singularity functions,470565144
 195–196statically determinate beams,470565144
 350–357table,470565144
 198–199use for statically indeterminate beams,470565144
 384–390Displacement,470565144
 defined,470565144
 25–26Displacement vector,470565144
 461–463Distortion,470565144
 defined,470565144
 26Distributed load,470565144
 defined,470565144
 167Distributed-load curve,470565144
 178–179Double-angle shape (2L),470565144
 223Double-integration method,470565144
 337–347boundary conditions,470565144
 336–337continuity conditions,470565144
 337defined,470565144
 336procedure for,470565144
 337–338symmetry conditions,470565144
 337Double shear,470565144
 defined,470565144
 10Doubly symmetric cross sections,470565144
  defined,470565144
bindex_EVALC.indd   3 20/12/19   2:32 PMI-2 Index,470565144
Bending-moment (continued)diagrams,470565144
 167–204discontinuity functions,470565144
 194–204applications of,470565144
 197–204constants of integration,470565144
 196–197integrals of,470565144
 196–204equations,470565144
 712graphical method for,470565144
 176–193Macaulay functions,470565144
 194–195maximum and minimum,470565144
 180positive,470565144
 266relationship to load and shear force,470565144
 177–182shapes,470565144
 relationships among diagram,470565144
 185–193sign conventions for,470565144
 334singularity functions,470565144
 195–196Bending strain,470565144
 234–235Bending stress (flexure stress)assumptions in flexure formula,470565144
 214in beams of homogeneous materials,470565144
 208–220in beams of two materials,470565144
 234–244in curved bars,470565144
 263–270economic sectionsselecting,470565144
 231standard structural steel shapes and,470565144
 231flexure formula,470565144
 214section modulus,470565144
 227in unsymmetric sections,470565144
 251Bernoulli,470565144
 Johann,470565144
 636Biaxial stress,470565144
 563Boundary conditionsfor beams,470565144
 336–337and bending-moment equation,470565144
 336for columns,470565144
 578–580defined,470565144
 336Brittle materials,470565144
 563–565maximum-normal-stress theory of failure,470565144
 563–564Mohr’s Failure Criterion,470565144
 564–565Bucklingdefined,470565144
 567effect of end conditions on column,470565144
 578–587equations,470565144
 715pin-ended columns,470565144
 570–578Built-up beams,470565144
 shear in,470565144
 294–302Bulk modulus,470565144
C,470565144
Cantilever beamdefined,470565144
 167deflection formulas,470565144
 705Castigliano,470565144
 Alberto,470565144
 658Castigliano’s first theorem,470565144
 658Castigliano’s second theorem,470565144
 658–670applied to beams,470565144
 665–670applied to trusses,470565144
 660–665development of,470565144
 658–660Center of curvature,470565144
 207–208Centric axial load,470565144
 244Centric loadingcombined with bending,470565144
 244–251combined with bending and torsion,470565144
 540–557combined with torsion,470565144
 528–530defined,470565144
 19stresses due to,470565144
 2–8Centroids of areas,470565144
 671–674Channel sections (C-shapes),470565144
 695–696Channel shape,470565144
 320–328Circular hole,470565144
 stress distribution near,470565144
 111–114Circular shaftsdeformations in,470565144
 117elastic torsion formula for,470565144
 120moment of inertia,470565144
 542normal stresses in,470565144
 121polar moment of inertia,470565144
 120shear stresses in,470565144
 118–119statically indeterminate,470565144
 142–155strains in,470565144
 117–118stress-concentration factors,470565144
 155–157transverse shear stress in,470565144
 288–289Circumferential stress (hoop stress),470565144
 509–525comparison of thin and thick-walled cylinders,470565144
  514–515in thick-walled cylinder,470565144
 512Clapeyron,470565144
 B. P. E.,470565144
 560Clapeyron’s theorem,470565144
 560Clip angle,470565144
 166Code calibration,470565144
 66Coefficient of thermal expansion,470565144
 35of selected materials,470565144
 table,470565144
 708–709Column(s)aluminum-alloy,470565144
 594–595buckling of pin-ended,470565144
 570–578centric loading of,470565144
 592–593critical load for,470565144
 573–574defined,470565144
 567derivation of,470565144
 588eccentricity ratio for,470565144
 591–592eccentric loading,470565144
 600–606effective length,470565144
 581–583effective length factors,470565144
 583effect of end conditions on,470565144
 578–587empirical formulas for,470565144
 592–600Euler’s formula,470565144
 573–574intermediate,470565144
 593–595local instability,470565144
 595long,470565144
 593–595short,470565144
 593–594slenderness ratio,470565144
 583structural steel,470565144
 593–594wood,470565144
 595Column-buckling model,470565144
 715Column formulasAISC,470565144
 593–594Aluminum Association,470565144
 594–595Euler,470565144
 573interaction,470565144
 601–602NDS,470565144
 595secant,470565144
 600structural steel,470565144
 593–594wood,470565144
 595Combined loadings,470565144
 410–411axial and torsional,470565144
 528–530centric,470565144
 flexural,470565144
 and torsional,470565144
 540–541centric and flexural,470565144
 244–251Compatibility equation,470565144
 392for axial members,470565144
 107for torsion members,470565144
bindex_EVALC.indd   2 20/12/19   2:32 PMI-1A,470565144
Absolute maximum shear strain,470565144
Absolute maximum shear stress,470565144
Actual depth,470565144
Algebraic distances,470565144
Allowable stress,470565144
 defined,470565144
Allowable stress design (ASD),470565144
Allowable stress method,470565144
American standard channels (C-shapes),470565144
Angle of rotation,470565144
Angle of twist,470565144
in circular shafts,470565144
defined,470565144
in noncircular sections,470565144
Angle sections (L-shapes),470565144
Angle shape,470565144
Angular rotation,470565144
Annular element,470565144
Arbitrarily loaded body,470565144
stress at general point in,470565144
Arbitrary cross section,470565144
defined,470565144
prismatic beams of,470565144
Area moment of inertia,470565144
ASD (allowable stress design),470565144
Aspect ratio,470565144
Assumptions,470565144
for bending due to eccentric axial load,470565144
in centric loading formula,470565144
in elastic curve equation,470565144
in flexure formula,470565144
in shearing stress formula,470565144
in torsion formula,470565144
for unsymmetric bending,470565144
Average normal strain,470565144
Axial deformation,470565144
Axial force,470565144
defined,470565144
diagram,470565144
Axial loading,470565144
Axially loaded members,470565144
Saint-Venant’s principle and,470565144
statically determinate,470565144
statically indeterminate,470565144
Axial strain,470565144
Axial stress,470565144
Axis. See Longitudinal axis,470565144
B,470565144
Beam deflections,470565144
diagrams,470565144
equations,470565144
statically determinate,470565144
by integration methods,470565144
by superposition methods,470565144
using discontinuity functions,470565144
 350–357statically indeterminate ,470565144
by integration methods,470565144
types of,470565144
using discontinuity functions for,470565144
Beam(s),470565144
 205. See also  specific beams,470565144
built-up,470565144
composite,470565144
continuous,470565144
cross-sectional dimensions of,470565144
defined,470565144
elastic curves for,470565144
equivalent,470565144
fixed-end,470565144
fixed-fixed,470565144
flexural stresses in,470565144
introductory design of,470565144
loads,470565144
neutral axis in,470565144
normal stresses in,470565144
principal stresses in a flexural  member,470565144
prismatic,470565144
 of arbitrary cross section,470565144
released,470565144
section modulus,470565144
shear and moment,470565144
shear flow in,470565144
shear stresses,470565144
of circular cross section,470565144
formula for,470565144
of rectangular cross section,470565144
in webs of flanged,470565144
shear stress formula for,470565144
stable,470565144
standard structural steel shapes for,470565144
supports,470565144
with symmetrical cross sections,470565144
types of,470565144
Beam table,470565144
Bearing stress,470565144
Behavior,470565144
elastic,470565144
plastic,470565144
Bend (flex),470565144
Bending,470565144
of curved bars,470565144
due to eccentric axial loading,470565144
nonuniform,470565144
plane of,470565144
pure,470565144
stresses,470565144
 resultant forces produced by,470565144
stress in beams,470565144
 analysis of,470565144
stress magnitudes,470565144
Bending-moment,470565144
boundary conditions,470565144
concentrated loads and moments,470565144
constructing shear force and,470565144
construction rules for shear force and,470565144
 180–182Index,470565144
bindex_EVALC.indd   1 20/12/19   2:32 PMCOPYRIGHTED MATERIAL,470565144
854Torsion,0470565144
of circular shafts,0470565144
equations for,0470565144
of noncircular solid sections,0470565144
of rectangular bars,0470565144
of thin-walled hollow sections,0470565144
Torsional deformations,0470565144
Torsional loading,0470565144
Torsional shear strain,0470565144
in circular sections,0470565144
in noncircular solid sections,0470565144
Torsional shear stress,0470565144
in circular sections,0470565144
in noncircular sections,0470565144
Transformation equations,0470565144
for plane strain,0470565144
for plane stress,0470565144
for three-dimensional stress,0470565144
Transformed cross section,0470565144
Transformed-section method,0470565144
Transverse load,0470565144
Tresca criterion,0470565144
Triaxial stress,0470565144
True stress,0470565144
Twist,0470565144
 angle of,0470565144
0.2% offset method for yield strength,0470565144
Two-force member ,0470565144
 defined,0470565144
u,0470565144
Ultimate load,0470565144
Ultimate strength,0470565144
for selected materials,0470565144
 table,0470565144
 825–826Wind load,0470565144
Wood,0470565144
 typical properties of,0470565144
Work,0470565144
defined,0470565144
related to axial member,0470565144
related to flexural member,0470565144
units of,0470565144
Work–energy method,0470565144
 for single loads,0470565144
Work hardening,0470565144
Y,0470565144
Yield,0470565144
Yielding,0470565144
 defined,0470565144
Yield point,0470565144
 defined,0470565144
Yield strength,0470565144
defined,0470565144
for selected materials,0470565144
 table,0470565144
Yield stress,0470565144
Young’s modulus,0470565144
 49Ultimate strength,0470565144
 defined,0470565144
Uniaxial,0470565144
 defined,0470565144
Unit volume change,0470565144
Unstable equilibrium,0470565144
Unsymmetric bending,0470565144
inclination of the neutral axis,0470565144
symmetrical sections,0470565144
Upset threads,0470565144
U-shaped,0470565144
cross section,0470565144
groove,0470565144
notch,0470565144
V,0470565144
Virtual work,0470565144
principle of,0470565144
Virtual-work method,0470565144
applied to beams,0470565144
applied to trusses,0470565144
applied to two-bar assembly,0470565144
V olumetric strain,0470565144
von Mises equivalent stress,0470565144
W,0470565144
Warping of cross sections in shaft due to ,0470565144
torsion,0470565144
Watt,0470565144
 defined,0470565144
Weak axis,0470565144
Web,0470565144
 defined,0470565144
Wide-flange sections (W-shapes),0470565144
 809–812853Superposition method,0470565144
for combined loadings,0470565144
for curved bars,0470565144
for deflections of determinate beams,0470565144
for indeterminate beam analysis,0470565144
Support settlement,0470565144
 defined,0470565144
Symmetry conditions,0470565144
t,0470565144
Table(s),0470565144
of deflection and slopes of beams,0470565144
of discontinuity functions,0470565144
of properties of materials,0470565144
of properties of plane figures,0470565144
of properties of rolled-steel shapes,0470565144
of properties of wood construction mate-,0470565144
rials,0470565144
Tangential stress,0470565144
Temperature effects,0470565144
Tensile strain,0470565144
Tensile stress,0470565144
Tension,0470565144
 defined,0470565144
Tension stress,0470565144
Tension test,0470565144
Theories of failure,0470565144
maximum-distortion-energy,0470565144
maximum-normal-stress,0470565144
maximum-shear-stress,0470565144
Mises equivalent stress,0470565144
Mohr’s Failure Criterion,0470565144
Thermal expansion,0470565144
coefficient,0470565144
 for selected materials,0470565144
 table,0470565144
Thermal expansion,0470565144
 coefficient of,0470565144
Thermal strain,0470565144
Thermal stress,0470565144
Thick-walled pressure vessels,0470565144
deformations in,0470565144
equations,0470565144
stress in,0470565144
Thin-walled pressure vessels,0470565144
cylindrical,0470565144
equations,0470565144
spherical,0470565144
Thin-walled sections,0470565144
 torsion,0470565144
Torque,0470565144
 defined,0470565144
Torque–rotation diagram,0470565144
Torque–twist relationship,0470565144
 178maximum shear,0470565144
 by Mohr’s circle,0470565144
nominal,0470565144
normal,0470565144
compression,0470565144
compressive,0470565144
defined,0470565144
and hydrostatic state stress,0470565144
tensile,0470565144
tension,0470565144
out-of-plane shear,0470565144
plane,0470565144
principal,0470565144
principal,0470565144
 by Mohr’s circle,0470565144
radial,0470565144
residual,0470565144
resultant,0470565144
shear,0470565144
tangential,0470565144
tensile,0470565144
thermal,0470565144
in thick-walled cylinders,0470565144
torsional shear,0470565144
triaxial,0470565144
true,0470565144
two-dimensional,0470565144
Stress concentration,0470565144
under axial loadings,0470565144
defined,0470565144
under flexural loadings,0470565144
under torsional loadings,0470565144
Stress-concentration factors,0470565144
for circular shafts,0470565144
for flat bars,0470565144
Stress distribution,0470565144
normal stress,0470565144
shear stress,0470565144
Stress element,0470565144
defined,0470565144
generating,0470565144
Stress invariance,0470565144
Stress–strain diagram,0470565144
Stress–strain equations,0470565144
 for isotropic ,0470565144
materials,0470565144
Stress trajectory,0470565144
Stress transformation,0470565144
Strong axis,0470565144
Structural shapes,0470565144
 standard,0470565144
Structural tees (T-shapes),0470565144
Superposition,0470565144
 principle,0470565144
 693flexural,0470565144
in-plane shear,0470565144
normal,0470565144
plane,0470565144
pressure vessels,0470565144
principal,0470565144
principal,0470565144
 by Mohr’s circle,0470565144
shear,0470565144
tensile,0470565144
torsional shear,0470565144
volumetric,0470565144
Strain element,0470565144
 defined,0470565144
Strain energy,0470565144
for axial loadings,0470565144
elastic,0470565144
Strain-energy density,0470565144
for normal stress,0470565144
for shear stress,0470565144
units of,0470565144
Strain gages,0470565144
Strain hardening,0470565144
Strain invariance,0470565144
Strain rosette,0470565144
Strength,0470565144
ultimate,0470565144
ultimate,0470565144
 of selected materials,0470565144
 table,0470565144
yield,0470565144
yield,0470565144
 of selected materials,0470565144
 table,0470565144
Strength limit states,0470565144
Stress,0470565144
allowable,0470565144
average normal,0470565144
average shear,0470565144
axial,0470565144
bearing,0470565144
biaxial,0470565144
circumferential,0470565144
compression,0470565144
compressive,0470565144
defined,0470565144
flexural,0470565144
hoop,0470565144
longitudinal,0470565144
maximum,0470565144
maximum normal,0470565144
maximum shear,0470565144
 635852Q,0470565144
Q section property,0470565144
R,0470565144
Radial displacement,0470565144
Radial interference,0470565144
Radial stress,0470565144
Radius of curv ature,0470565144
 defined,0470565144
Radius of gyration,0470565144
 defined,0470565144
Ramp function,0470565144
Rankine’s theory,0470565144
Recovery,0470565144
 elastic,0470565144
Redundant reactions,0470565144
Redundants,0470565144
Released beam,0470565144
Reliability analysis,0470565144
Residual strain,0470565144
Residual stress,0470565144
Resistance,0470565144
 in LRFD,0470565144
Resistance strain gage,0470565144
Resultant stress,0470565144
Rigid bar,0470565144
 defined,0470565144
Rigid-body displacement,0470565144
 defined,0470565144
Rigid element,0470565144
 defined,0470565144
Rigidity,0470565144
 modulus of,0470565144
defined,0470565144
relationship to elastic modulus,0470565144
for selected materials,0470565144
 table,0470565144
Roller supports,0470565144
 defined,0470565144
Rosette analysis,0470565144
Rotation,0470565144
 angle of,0470565144
rpm,0470565144
 defined,0470565144
S,0470565144
Safety,0470565144
 factor of,0470565144
in AISC column formulas,0470565144
Saint-Venant’s Principle,0470565144
Saint-Venant’s theory of torsion,0470565144
Secant formula,0470565144
Second moment of area,0470565144
Section modulus,0470565144
Section plane,0470565144
 defined,0470565144
Serviceability limit states,0470565144
Service loads,0470565144
 defined,0470565144
Shear,0470565144
 direct,0470565144
double,0470565144
punching,0470565144
single,0470565144
Shear area,0470565144
Shear center,0470565144
for channel section,0470565144
defined,0470565144
 373–374transverse,0470565144
in circular sections,0470565144
in flanged sections,0470565144
in rectangular sections,0470565144
Short columns,0470565144
Shrink-fit,0470565144
Sign convention,0470565144
for angle of twist,0470565144
for axial deformation,0470565144
for beam deflections,0470565144
for bending moments,0470565144
for curvature,0470565144
for flexural strain,0470565144
for internal bending moment,0470565144
for internal shear force,0470565144
for internal torques,0470565144
for Mohr’s circle (stress),0470565144
for normal strains,0470565144
for normal stresses,0470565144
for shear-force and bending-moment ,0470565144
diagrams,0470565144
for shear strains,0470565144
for shear stresses,0470565144
for torsional rotation angles,0470565144
Significant digits,0470565144
Similar triangles,0470565144
Simple beam,0470565144
 defined,0470565144
Simply supported beam,0470565144
deflection formulas,0470565144
Simply supported beam,0470565144
 defined,0470565144
Single shear,0470565144
 defined,0470565144
Singularity functions,0470565144
for concentrated forces,0470565144
for concentrated moments,0470565144
Slenderness ratio,0470565144
 defined,0470565144
Snow load,0470565144
Spherical pressure vessels,0470565144
Stable beam,0470565144
Stable equilibrium,0470565144
State of stress,0470565144
 defined,0470565144
Statically indeterminate members,0470565144
with axial loads,0470565144
with flexural loads,0470565144
with elastic supports,0470565144
by integration methods,0470565144
by superposition methods,0470565144
using discontinuity functions,0470565144
with torsional loads,0470565144
Stem,0470565144
 defined,0470565144
Step function,0470565144
Strain,0470565144
absolute maximum shear,0470565144
axial,0470565144
compressive,0470565144
defined,0470565144
 30for sections consisting of two rectangles,0470565144
for semi-circular section,0470565144
Shear coupling coefficients,0470565144
Shear flow,0470565144
in built-up beams,0470565144
in closed sections,0470565144
due to torsion,0470565144
in thin-walled sections,0470565144
in thin-walled tubes,0470565144
Shear force,0470565144
defined,0470565144
diagrams,0470565144
equations for,0470565144
relationship to load and bending ,0470565144
moment,0470565144
Shear-force diagram,0470565144
Shear key,0470565144
Shear modulus,0470565144
defined,0470565144
relationship to elastic modulus,0470565144
for selected materials,0470565144
 table,0470565144
Shear strain,0470565144
absolute maximum,0470565144
maximum in-plane,0470565144
relationship to shear stress,0470565144
sign convention for,0470565144
torsional,0470565144
in circular sections,0470565144
in noncircular sections,0470565144
transformation equations,0470565144
Shear stress,0470565144
absolute maximum,0470565144
direct shear,0470565144
equality on perpendicular planes,0470565144
horizontal,0470565144
in circular sections,0470565144
in flanged sections,0470565144
in rectangular sections,0470565144
maximum,0470565144
maximum in-plane,0470565144
nominal,0470565144
out-of-plane,0470565144
relationship to shear strain,0470565144
sign convention for,0470565144
strain-energy density for,0470565144
in thin-walled sections,0470565144
torsional,0470565144
in circular sections,0470565144
in noncircular sections,0470565144
transformation equations,0470565144
 491–492851Plastic behavior,0470565144
Plastic deformation,0470565144
Poisson’s ratio,0470565144
and Lamé solution,0470565144
major,0470565144
minor,0470565144
Polar moment of inertia,0470565144
defined,0470565144
parallel-axis theorems for,0470565144
Polar moment of inertia,0470565144
 defined,0470565144
Potential energy,0470565144
Power transmission shafts,0470565144
Press-fit,0470565144
Pressure,0470565144
contact,0470565144
hydrostatic,0470565144
internal and external,0470565144
Pressure vessels,0470565144
Principal angles,0470565144
Principal moments of inertia,0470565144
defined,0470565144
by Mohr’s circle,0470565144
Principal planes,0470565144
bending,0470565144
cross sections,0470565144
defined,0470565144
Principal strains,0470565144
defined,0470565144
by Mohr’s circle,0470565144
Principal stresses,0470565144
defined,0470565144
by Mohr’s circle,0470565144
Principle of superposition,0470565144
Prismatic,0470565144
 defined,0470565144
Product of inertia,0470565144
defined,0470565144
parallel-axis theorem for,0470565144
in unsymmetrical bending,0470565144
Projected area,0470565144
Properties,0470565144
of an area,0470565144
angle shapes (L shapes),0470565144
channel sections,0470565144
hollow structural sections (HSS shapes),0470565144
metals,0470565144
of plane figures,0470565144
wood,0470565144
W-shapes (wide-flange sections),0470565144
WT-shapes,0470565144
Proportional limit,0470565144
Propped cantilever beam,0470565144
Punching shear,0470565144
 11–12flexural,0470565144
maximum and minimum,0470565144
out-of-plane,0470565144
in pressure vessels,0470565144
principal,0470565144
sign convention,0470565144
transformation,0470565144
Normal stress,0470565144
axial,0470565144
defined,0470565144
eccentric axial load,0470565144
flexural,0470565144
and hydrostatic state stress,0470565144
maximum and minimum,0470565144
on maximum in-plane shear stress ,0470565144
surfaces,0470565144
nominal,0470565144
in pressure vessels,0470565144
Saint-Venant’s principle,0470565144
sign convention for,0470565144
and temperature changes,0470565144
transformation,0470565144
and volume changes,0470565144
Notch,0470565144
Notional failure rate,0470565144
o,0470565144
Offset method for yield strength,0470565144
Orthotropic materials,0470565144
Out-of-plane shear stress,0470565144
Overhang,0470565144
 beam with,0470565144
Overhanging beam,0470565144
 defined,0470565144
Overload,0470565144
 defined,0470565144
P,0470565144
Parallel-axis theorem,0470565144
defined,0470565144
for products of inertia,0470565144
Percent elongation,0470565144
defined,0470565144
of selected materials,0470565144
 table,0470565144
Percent reduction in area,0470565144
Perfectly plastic,0470565144
Permanent set,0470565144
Pin-ended columns,0470565144
Pin support,0470565144
 defined,0470565144
Plane of bending,0470565144
Plane strain,0470565144
equations,0470565144
transformation of,0470565144
Plane stress,0470565144
equations,0470565144
transformation of,0470565144
 491–496for indeterminate beam analysis,0470565144
for unsymmetric bending,0470565144
Microstrain,0470565144
 defined,0470565144
Minor diameter,0470565144
Minor Poisson’s ratio,0470565144
Mises equivalent stress,0470565144
Mode shape,0470565144
Modular ratio,0470565144
Modulus of elasticity,0470565144
defined,0470565144
Hooke’s Law and,0470565144
and Lamé solution,0470565144
relationship to shear modulus,0470565144
for selected materials,0470565144
 table,0470565144
Modulus of resilience,0470565144
Modulus of rigidity,0470565144
defined,0470565144
relationship to elastic modulus,0470565144
for selected materials,0470565144
 table,0470565144
Modulus of toughness,0470565144
Mohr’s circle,0470565144
for moments of inertia,0470565144
for strains,0470565144
for stresses,0470565144
Mohr’s Failure Criterion,0470565144
Moment–curvature equation,0470565144
Moment–curvature relationship,0470565144
in beams of two materials,0470565144
in differential equation for column ,0470565144
buckling,0470565144
Moment of inertia,0470565144
circular cross sections,0470565144
defined,0470565144
Moment–rotation angle diagram,0470565144
N,0470565144
Necking,0470565144
Net section,0470565144
Neutral axis,0470565144
for curved bars,0470565144
inclination of,0470565144
Neutral equilibrium,0470565144
Neutral surface,0470565144
Nominal stress,0470565144
Noncircular members,0470565144
torsion of solid,0470565144
torsion of thin-walled hollow,0470565144
Nonuniform bending,0470565144
 defined,0470565144
Normal strain,0470565144
Cartesian components,0470565144
defined,0470565144
 30–32850G,0470565144
Gage length,0470565144
Gears,0470565144
Gear pitch,0470565144
Gear ratio,0470565144
Generalized Hooke’s law,0470565144
equations,0470565144
for isotropic materials,0470565144
and Lamé solution,0470565144
for orthotropic materials,0470565144
and temperature effects,0470565144
General state of stress,0470565144
Geometry-of-deformation equation,0470565144
for axial members,0470565144
for flexural members,0470565144
for torsion members,0470565144
Groove,0470565144
Gyration,0470565144
 radius of,0470565144
 defined,0470565144
H,0470565144
Hertz,0470565144
 defined,0470565144
High-velocity impact,0470565144
Hollow Structural Sections (HSS Shapes),0470565144
Homogeneous material,0470565144
 defined,0470565144
Hooke’s Law,0470565144
for biaxial state of stress,0470565144
generalized,0470565144
 for orthotropic materials,0470565144
for general state of stress,0470565144
for plane state of stress,0470565144
for shear stress,0470565144
and temperature effects on generalized,0470565144
for triaxial state of stress,0470565144
for uniaxial state of stress,0470565144
Hoop stress (circumferential stress),0470565144
Horsepower,0470565144
 defined,0470565144
HSS Shapes (Hollow Structural Sections),0470565144
Huber–von Mises–Hencky theory,0470565144
Hydrostatic pressure,0470565144
Hydrostatic state stress,0470565144
Hydrostatic stress,0470565144
 defined,0470565144
Hz,0470565144
 defined,0470565144
i,0470565144
Ideal column,0470565144
Impact,0470565144
 defined,0470565144
Impact factor,0470565144
for freely falling weight,0470565144
 730transverse,0470565144
ultimate,0470565144
wind,0470565144
Load and resistance factor design (LRFD),0470565144
Load–deflection diagram,0470565144
Load–deformation diagram,0470565144
Load diagram,0470565144
Load factor,0470565144
Load functions,0470565144
using discontinuity functions,0470565144
Local instability of columns,0470565144
Long columns,0470565144
Longitudinal axis,0470565144
Longitudinal plane of symmetry,0470565144
Longitudinal stress,0470565144
Low-velocity impact,0470565144
LRFD (load and resistance factor design),0470565144
Lüder’s lines,0470565144
M,0470565144
Macaulay brackets,0470565144
Macaulay functions,0470565144
canceling,0470565144
constants of integration,0470565144
graphs of,0470565144
integrals of,0470565144
ramp function,0470565144
step function,0470565144
Major diameter,0470565144
Major Poisson’s ratio,0470565144
Materials,0470565144
selected properties,0470565144
 table,0470565144
Matrix,0470565144
 in composite materials,0470565144
Maximum deflection of beams,0470565144
 by ,0470565144
integration method,0470565144
Maximum-distortion-energy theory of ,0470565144
failure,0470565144
Maximum in-plane shear strain,0470565144
Maximum in-plane shear stress,0470565144
Maximum normal stress,0470565144
Maximum-normal-stress theory of  ,0470565144
failure,0470565144
Maximum shear stress,0470565144
Maximum stress,0470565144
Median line,0470565144
 thin-walled tubes,0470565144
Method of sections,0470565144
 defined,0470565144
Method of superposition,0470565144
for combined stresses,0470565144
for deflections of determinate beams,0470565144
423–439for weight moving horizontally,0470565144
Impact Force,0470565144
for freely falling weight,0470565144
for weight moving horizontally,0470565144
Impact load,0470565144
Inclination of the neutral axis,0470565144
Indeterminacy,0470565144
 degree of,0470565144
Inelastic strain,0470565144
Inelastic strain energy,0470565144
Inertia,0470565144
 moment,0470565144
Infinitesimal element,0470565144
Inflection point,0470565144
Integration method,0470565144
Interaction formula,0470565144
Interaction method,0470565144
Interference fits,0470565144
Intermediate columns,0470565144
Internal force,0470565144
Internal pressure,0470565144
Internal torque diagram,0470565144
Internal work,0470565144
Invariance,0470565144
Isotropic materials,0470565144
defined,0470565144
generalized Hooke’s law,0470565144
J,0470565144
Joint displacement,0470565144
K,0470565144
Keys,0470565144
 shear,0470565144
l,0470565144
Lamé solution,0470565144
Lateral bracing,0470565144
Limit states,0470565144
Live load,0470565144
Load,0470565144
centric,0470565144
concentrated,0470565144
critical buckling,0470565144
dead,0470565144
distributed,0470565144
eccentric,0470565144
Euler buckling,0470565144
live,0470565144
punching shear,0470565144
shear,0470565144
double,0470565144
punching,0470565144
single,0470565144
snow,0470565144
torsional,0470565144
 183–185849Failure theories,0470565144
equations,0470565144
maximum-distortion energy,0470565144
maximum-normal-stress,0470565144
maximum-shear-stress,0470565144
Mises equivalent stress,0470565144
Mohr’s Failure Criterion,0470565144
Fasteners,0470565144
Fastener force–spacing relationship,0470565144
Fastener stress–spacing relationship,0470565144
Fiber-reinforced epoxy materials,0470565144
Fibers,0470565144
 longitudinal,0470565144
Fillets,0470565144
First buckling mode,0470565144
First moment of area,0470565144
locating beam neutral surface,0470565144
locating centroid of area,0470565144
in parallel-axis theorem,0470565144
Q section property,0470565144
Fixed-end beam,0470565144
 defined,0470565144
Fixed-fixed beam,0470565144
 defined,0470565144
Fixed support,0470565144
 defined,0470565144
Flange,0470565144
 defined,0470565144
Flexural deformation,0470565144
Flexural loading,0470565144
combined with centric loading,0470565144
combined with torsional loading,0470565144
Flexural rigidity of beams,0470565144
Flexural strains,0470565144
Flexural stresses,0470565144
in beams of homogeneous materials,0470565144
in beams of two materials,0470565144
Flexure formula,0470565144
Force–deformation relationship,0470565144
Force-fit,0470565144
Fracture stress,0470565144
 defined,0470565144
Free-body diagram method,0470565144
for flexural stresses,0470565144
 beams,0470565144
for plane stress transformations,0470565144
for shear stresses on oblique planes of ,0470565144
shafts,0470565144
for stresses in cylindrical pressure ,0470565144
vessels,0470565144
for stresses in spherical pressure vessels,0470565144
for stresses in thick-walled cylinders,0470565144
for stresses on inclined planes,0470565144
Frequency,0470565144
 shaft rotation,0470565144
 161Elastic curve,0470565144
 differential equations,0470565144
for beams,0470565144
for columns,0470565144
Elastic flexure formula,0470565144
Elasticity,0470565144
 defined,0470565144
Elasticity,0470565144
 modulus,0470565144
of selected materials,0470565144
 table,0470565144
Elasticity,0470565144
 modulus of,0470565144
defined,0470565144
and Lamé solution,0470565144
Elastic limit,0470565144
 defined,0470565144
Elastic modulus,0470565144
defined,0470565144
relationship to shear modulus,0470565144
Elastic recovery,0470565144
 defined,0470565144
Elastic strain,0470565144
 defined,0470565144
Elastic strain energy,0470565144
for axial deformation,0470565144
for axial loading,0470565144
due to distortion,0470565144
due to hydrostatic stress,0470565144
due to volume change,0470565144
for flexural deformation,0470565144
for torsional deformation,0470565144
for triaxial loading,0470565144
Elastic support,0470565144
Elastic torsion formula,0470565144
 defined,0470565144
Elastoplastic material,0470565144
Electrical-resistance strain gages,0470565144
Elongation,0470565144
axially loaded members,0470565144
Elongation,0470565144
 percent,0470565144
defined,0470565144
of selected materials,0470565144
 table,0470565144
Empirical column formulas,0470565144
End conditions,0470565144
 for columns,0470565144
Energy,0470565144
 units of,0470565144
Engineering stress,0470565144
Epoxy materials,0470565144
Equation of elastic curve,0470565144
Equilibrium,0470565144
 in cylinders,0470565144
Equivalent static load,0470565144
Euler buckling load,0470565144
Euler buckling stress,0470565144
Euler’s formula,0470565144
Extensometer,0470565144
External pressure,0470565144
External work,0470565144
F,0470565144
Fabricated (built-up) beams,0470565144
 shear in,0470565144
Factor of safety,0470565144
 defined,0470565144
Failure,0470565144
 defined,0470565144
 67load,0470565144
load–deflection,0470565144
load–deformation,0470565144
moment–rotation angle,0470565144
rotation angle,0470565144
shear-force,0470565144
stress–strain,0470565144
torque–rotation,0470565144
Differential equation of the elastic curve,0470565144
for beams,0470565144
for columns,0470565144
Digits,0470565144
 significant,0470565144
Dilatation,0470565144
Direction cosines,0470565144
Discontinuity expressions,0470565144
Discontinuity functions,0470565144
constants of integration,0470565144
integrals of,0470565144
shear-force and bending-moment ,0470565144
diagrams,0470565144
table of,0470565144
Displacement,0470565144
 defined,0470565144
Displacement vector,0470565144
Distortion,0470565144
 defined,0470565144
Distributed load,0470565144
 defined,0470565144
Double-integration method,0470565144
Double shear,0470565144
 defined,0470565144
Doubly symmetric sections,0470565144
 defined,0470565144
Ductile materials,0470565144
maximum-distortion-energy failure ,0470565144
theory,0470565144
maximum-shear-stress failure theory,0470565144
Mises equivalent stress,0470565144
Ductility,0470565144
defined,0470565144
of selected materials,0470565144
 table,0470565144
Dynamic force,0470565144
Dynamic load,0470565144
E,0470565144
Eccentricity,0470565144
Eccentricity ratio,0470565144
Eccentric loading,0470565144
Effective column length,0470565144
Effective-slenderness ratio,0470565144
 defined,0470565144
Elastic behavior,0470565144
 defined,0470565144
Elastic curve,0470565144
 defined,0470565144
using discontinuity functions,0470565144
 459848Biaxial stress,0470565144
Boundary conditions,0470565144
for beams,0470565144
for columns,0470565144
Brittle materials,0470565144
maximum-normal-stress theory of ,0470565144
failure,0470565144
Mohr’s Failure Criterion,0470565144
Buckling,0470565144
defined,0470565144
equations,0470565144
Built-up beams,0470565144
 shear in,0470565144
Bulk modulus,0470565144
C,0470565144
Cantilever beam,0470565144
deflection formulas,0470565144
Cantilever beam,0470565144
 defined,0470565144
Castigliano’s First Theorem,0470565144
Castigliano’s Second Theorem,0470565144
applied to beams,0470565144
applied to trusses,0470565144
development of,0470565144
Center of curvature,0470565144
 defined,0470565144
Centric loading,0470565144
combined with bending,0470565144
combined with bending and torsion,0470565144
combined with torsion,0470565144
defined,0470565144
stresses due to,0470565144
Centroids of areas,0470565144
Channel sections (C-shapes),0470565144
Circular hole,0470565144
 stress distribution near,0470565144
Circular shafts,0470565144
deformations in,0470565144
elastic torsion formula for,0470565144
moment of inertia,0470565144
normal stresses in,0470565144
polar moment of inertia,0470565144
section modulus,0470565144
shear stresses in,0470565144
statically indeterminate,0470565144
strains in,0470565144
stress-concentration factors,0470565144
transverse shear stress in,0470565144
Circumferential stress (hoop stress),0470565144
Clapeyron’s theorem,0470565144
 659Contact pressure,0470565144
Continuity conditions,0470565144
Continuous beam,0470565144
 defined,0470565144
Coulomb’s theory,0470565144
Critical buckling load,0470565144
Critical buckling stress,0470565144
Cross section,0470565144
 defined,0470565144
Curvature,0470565144
Curvature,0470565144
 radius of,0470565144
Curved bars,0470565144
Cylinders,0470565144
Cylindrical pressure vessels,0470565144
D,0470565144
Dead loads,0470565144
Deflection,0470565144
 beams,0470565144
formulas for cantilever beams,0470565144
formulas for simply supported  ,0470565144
beams,0470565144
by integration method,0470565144
by superposition method,0470565144
Deflection curve,0470565144
Deformation,0470565144
axial,0470565144
in circular shafts,0470565144
circumferential,0470565144
in curved bars,0470565144
defined,0470565144
flexural,0470565144
and hydrostatic state stress,0470565144
plastic,0470565144
radial,0470565144
in thick-walled cylinders,0470565144
torsional,0470565144
Deformation diagram,0470565144
Degree of indeterminacy,0470565144
Design,0470565144
allowable stress,0470565144
beam,0470565144
column,0470565144
AISC specifications,0470565144
Aluminum Association specifications,0470565144
formulas for,0470565144
NDS,0470565144
load and resistance factor,0470565144
Diagram,0470565144
axial-force,0470565144
beam deflection,0470565144
bending-moment,0470565144
deformation,0470565144
internal torque,0470565144
 149Code calibration,0470565144
Coefficient of thermal expansion,0470565144
of selected materials,0470565144
 table,0470565144
Column(s),0470565144
centric loading of,0470565144
critical load for,0470565144
defined,0470565144
derivation of,0470565144
eccentricity ratio for,0470565144
eccentric loading,0470565144
effective length,0470565144
effective length factors,0470565144
effect of end conditions on,0470565144
empirical formulas for,0470565144
Euler’s formula,0470565144
intermediate,0470565144
local instability,0470565144
long,0470565144
short,0470565144
slenderness ratio,0470565144
Column-buckling model,0470565144
Column formulas,0470565144
AISC,0470565144
Aluminum Association,0470565144
Euler,0470565144
interaction,0470565144
NDS,0470565144
parabolic,0470565144
secant,0470565144
structural steel,0470565144
wood,0470565144
Combined loadings,0470565144
axial and torsional,0470565144
centric,0470565144
 flexural,0470565144
 and torsional,0470565144
centric and flexural,0470565144
Compatibility equation,0470565144
for axial members,0470565144
for flexural members,0470565144
for torsion members,0470565144
Composite beams,0470565144
Compression,0470565144
 defined,0470565144
Compression stress,0470565144
Compressive stress,0470565144
Concentrated load,0470565144
Concept of stress,0470565144
Conservation of energy,0470565144
applied to axial deformation,0470565144
applied to impact load,0470565144
applied to torsional deformation,0470565144
defined,0470565144
Constitutive relationships,0470565144
 103847Index,0470565144
A,0470565144
Absolute maximum shear strain,0470565144
Absolute maximum shear stress,0470565144
Allow able stress,0470565144
 defined,0470565144
Allowable stress design (ASD),0470565144
Allowable stress method,0470565144
American standard channels (C-shapes),0470565144
Angle of rotation,0470565144
Angle of twist,0470565144
in circular shafts,0470565144
in noncircular sections,0470565144
Angle sections (L-shapes),0470565144
Annular element,0470565144
Arbitrary cross section,0470565144
 defined,0470565144
ASD (allowable stress design),0470565144
Aspect ratio,0470565144
Assumptions,0470565144
for bending due to eccentric axial load,0470565144
in centric loading formula,0470565144
in elastic curve equation,0470565144
in flexure formula,0470565144
in shearing stress formula,0470565144
in torsion formula,0470565144
for unsymmetric bending,0470565144
Axial deformation,0470565144
Axial force,0470565144
 defined,0470565144
 2statically determinate,0470565144
by integration methods,0470565144
by superposition methods,0470565144
using discontinuity functions,0470565144
statically indeterminate,0470565144
by integration methods,0470565144
by superposition methods,0470565144
Bearing stress,0470565144
Bending,0470565144
of curved bars,0470565144
nonuniform,0470565144
 defined,0470565144
pure,0470565144
 defined,0470565144
Bending-moment,0470565144
diagrams,0470565144
equations,0470565144
relationship to load and shear force,0470565144
sign conventions for,0470565144
Bending strain,0470565144
Bending stress (flexure stress),0470565144
assumptions in flexure formula,0470565144
in beams of homogeneous materials,0470565144
in beams of two materials,0470565144
in curved bars,0470565144
economic sections,0470565144
selecting,0470565144
standard structural steel shapes and,0470565144
flexure formula,0470565144
section modulus,0470565144
in unsymmetric sections,0470565144
 292–300Axial force diagram,0470565144
Axial loading,0470565144
Axially loaded members,0470565144
Saint-Venant’s principle and,0470565144
statically determinate,0470565144
statically indeterminate,0470565144
Axial strain,0470565144
Axial stress,0470565144
B,0470565144
Beam(s),0470565144
built-up,0470565144
composite,0470565144
deflection of,0470565144
elastic curves for,0470565144
flexural stresses in,0470565144
flexural stress formula for,0470565144
introductory design of,0470565144
neutral axis in,0470565144
normal stresses in,0470565144
principal stresses in,0470565144
section modulus of,0470565144
shear flow in,0470565144
shear stresses in,0470565144
shear stress formula for,0470565144
types of,0470565144
Beam deflection diagram,0470565144
Beam deflections,0470565144
equations,0470565144
INDEX 519,3319188771
vector product,3319188771
velocity,3319188771
virtual displacement,3319188771
virtual strain,3319188771
longitudinal,3319188771
shear,3319188771
virtual work,3319188771
deﬁnition,3319188771
external,3319188771
external (axial),3319188771
external (Euler–Bernoulli),3319188771
external (pure bending),3319188771
external (torsion),3319188771
internal,3319188771
internal (axial),3319188771
internal (bending),3319188771
internal (shear),3319188771
internal (torsion),3319188771
principle of,3319188771
492volume,3319188771
center of,3319188771
volumetric strain,3319188771
warping,3319188771
web,3319188771
weight,3319188771
speciﬁc,3319188771
work,3319188771
actual,3319188771
inﬁnitesimal,3319188771
virtual,3319188771
work-hardening,3319188771
yield moment,3319188771
yield stress,3319188771
yielding,3319188771
Young’s modulus,3319188771
zero-force member,3319188771
 112518 INDEX,3319188771
1-dof,3319188771
built-in or ﬁxed,3319188771
guided,3319188771
pin or hinge,3319188771
roller,3319188771
simple,3319188771
supports,3319188771
improper,3319188771
proper,3319188771
tangent modulus,3319188771
temperature,3319188771
absolute,3319188771
Celsius,3319188771
tensor,3319188771
rotation,3319188771
strain,3319188771
stress,3319188771
thermal expansion,3319188771
 linear coefﬁcient,3319188771
of,3319188771
thermal strain,3319188771
thermal stress,3319188771
thin-walled,3319188771
deﬁnition,3319188771
three-point ﬂexural test,3319188771
torque,3319188771
torque–twist relation,3319188771
torsional rigidity,3319188771
effective,3319188771
torsional spring constant,3319188771
torsional stiffness,3319188771
toughness,3319188771
traction vector,3319188771
transformed section,3319188771
Tresca criterion,3319188771
triaxial stress,3319188771
tribology,3319188771
triple product,3319188771
scalar,3319188771
vector,3319188771
truss,3319188771
cantilevered,3319188771
ﬂat,3319188771
Howe,3319188771
 112open,3319188771
pitched,3319188771
Pratt,3319188771
Serrurier,3319188771
space,3319188771
simple,3319188771
statically determinate,3319188771
twist,3319188771
angle of,3319188771
two-force body,3319188771
ultimate moment,3319188771
ultimate strength,3319188771
compressive,3319188771
shear,3319188771
tensile,3319188771
uniaxial stress,3319188771
unit doublet,3319188771
units,3319188771
imperial,3319188771
metric,3319188771
US customary,3319188771
variation,3319188771
ﬁrst,3319188771
second,3319188771
Varignon’s theorem,3319188771
vector,3319188771
Cartesian components,3319188771
Cartesian coordinate system,3319188771
cross product,3319188771
differentiation with respect to a,3319188771
scalar variable,3319188771
dot product,3319188771
equal and opposite,3319188771
free,3319188771
orthogonal,3319188771
parallel,3319188771
parallelogram rule,3319188771
scalar multiplication,3319188771
scalar product,3319188771
unit,3319188771
vector product,3319188771
zero,3319188771
 14INDEX 517,3319188771
strain,3319188771
area,3319188771
average,3319188771
conventional,3319188771
deviatoric,3319188771
engineering,3319188771
ﬁnite,3319188771
inﬁnitesimal,3319188771
local,3319188771
logarithmic,3319188771
longitudinal,3319188771
normal,3319188771
plane,3319188771
plastic,3319188771
shear,3319188771
engineering,3319188771
tensor,3319188771
thermal,3319188771
true,3319188771
volumetric,3319188771
strain energy,3319188771
bending,3319188771
 Euler–Bernoulli,3319188771
bending,3319188771
 pure,3319188771
strain ga(u)ge,3319188771
strain-gauge rosette,3319188771
strain-hardening,3319188771
strength,3319188771
comp[ressive,3319188771
 ultimate,3319188771
compressive,3319188771
 ultimate,3319188771
shear,3319188771
 ultimate,3319188771
tensile,3319188771
 ultimate,3319188771
ultimate,3319188771
stress,3319188771
allowable bearing,3319188771
allowable normal,3319188771
allowable shear,3319188771
average normal,3319188771
bearing,3319188771
biaxial,3319188771
components,3319188771
compressive,3319188771
critical,3319188771
 168deviatoric,3319188771
engineering,3319188771
equibiaxial,3319188771
equitriaxial,3319188771
hydrostatic,3319188771
mean,3319188771
mean in-plane,3319188771
nominal,3319188771
non-uniform,3319188771
normal,3319188771
plane,3319188771
principal,3319188771
shear,3319188771
average,3319188771
state of,3319188771
tensile,3319188771
tensor,3319188771
thermal,3319188771
triaxial,3319188771
true,3319188771
uniaxial,3319188771
uniform,3319188771
yield,3319188771
stress factor,3319188771
stress ﬁeld,3319188771
normal,3319188771
shear,3319188771
stress function,3319188771
stress state,3319188771
hydrostatic,3319188771
simple,3319188771
triaxial,3319188771
stress vector,3319188771
stress–strain diagram,3319188771
stretch,3319188771
local,3319188771
structure,3319188771
nonlinear,3319188771
subbody,3319188771
superposition,3319188771
 principle of,3319188771
support,3319188771
 66516 INDEX,3319188771
rigid,3319188771
body,3319188771
particle system,3319188771
rigid body,3319188771
rigidity,3319188771
axial,3319188771
effective axial,3319188771
effective torsional,3319188771
torsional,3319188771
roller support,3319188771
rosette,3319188771
delta,3319188771
rectangular,3319188771
safety factor,3319188771
Saint-Venant’s principle,3319188771
sand-heap analogy,3319188771
scalar,3319188771
scalar product,3319188771
secant formula,3319188771
secant modulus,3319188771
second moment of area,3319188771
mixed,3319188771
polar,3319188771
second variation,3319188771
section modulus,3319188771
shaft,3319188771
compound,3319188771
deﬁnition,3319188771
shape factor,3319188771
shear,3319188771
double,3319188771
force,3319188771
diagrams,3319188771
single,3319188771
shear center,3319188771
shear ﬂow,3319188771
shear modulus,3319188771
shear strain,3319188771
shear stress,3319188771
average,3319188771
direct,3319188771
octahedral,3319188771
 203sign convention,3319188771
signiﬁcant digits,3319188771
simple shear,3319188771
simple stress state,3319188771
simply supported body,3319188771
singularity functions,3319188771
slenderness ratio,3319188771
critical,3319188771
solid,3319188771
span,3319188771
speciﬁc weight,3319188771
spherical angles,3319188771
spring,3319188771
inelastic,3319188771
linear,3319188771
linearly elastic,3319188771
nonlinearly elastic,3319188771
rotational,3319188771
translational,3319188771
spring constant,3319188771
torsional,3319188771
statically determinate,3319188771
externally,3319188771
locally,3319188771
statically indeterminate,3319188771
degree,3319188771
externally,3319188771
locally,3319188771
statically underdeterminate,3319188771
statics,3319188771
deﬁnition,3319188771
stiffness,3319188771
axial,3319188771
torsional,3319188771
stiffness coefﬁcients,3319188771
stiffness matrix,3319188771
global,3319188771
stirrup,3319188771
 420INDEX 515,3319188771
microstrain,3319188771
middle-third rule,3319188771
minimum total potential energy,3319188771
principle of,3319188771
Mises criterion,3319188771
modulus of rupture,3319188771
Mohr’s circle,3319188771
strain,3319188771
Mohr’s ﬁrst theorem,3319188771
Mohr’s second theorem,3319188771
moment,3319188771
bending,3319188771
diagrams,3319188771
resultant,3319188771
torsional,3319188771
twisting,3319188771
moment of inertia,3319188771
 seesecond,3319188771
moment of area,3319188771
motion,3319188771
accelerated,3319188771
uniform,3319188771
necking,3319188771
neutral ﬁber,3319188771
neutral plane,3319188771
Newton’s First Law,3319188771
Newton’s law of universal,3319188771
gravitation,3319188771
Newton’s laws of motion,3319188771
Newton’s Second Law,3319188771
nonlinearity,3319188771
geometric,3319188771
normal stress,3319188771
octahedral planes,3319188771
octahedral shear stress,3319188771
overhang,3319188771
parallel-axis theorem,3319188771
particle,3319188771
deﬁnition,3319188771
Pascal’s law,3319188771
planar force system,3319188771
72plane,3319188771
neutral,3319188771
plane strain,3319188771
plane stress,3319188771
plastic modulus,3319188771
plastic strain,3319188771
Poisson’s ratio,3319188771
positive-deﬁnite,3319188771
potential energy,3319188771
minimum total,3319188771
 principle of,3319188771
power,3319188771
pressure,3319188771
pressure vessel,3319188771
principal invariants,3319188771
principle of conservation of energy,3319188771
principle of least resistance,3319188771
principle of superposition,3319188771
principle of transmissibility,3319188771
principle of virtual work,3319188771
proper supports,3319188771
pseudoelasticity,3319188771
pure bending,3319188771
pure shear,3319188771
Ramberg–Osgood formula,3319188771
ramp function,3319188771
Rayleigh quotient,3319188771
Rayleigh’s method,3319188771
reaction,3319188771
internal,3319188771
redundant,3319188771
rebar,3319188771
reciprocal theorem (Maxwell–Betti),3319188771
redundancy,3319188771
redundant reaction,3319188771
relaxation,3319188771
right-hand rule,3319188771
 95514 INDEX,3319188771
angle of static,3319188771
dry,3319188771
ﬂuid,3319188771
internal,3319188771
wet,3319188771
friction coefﬁcient,3319188771
kinetic,3319188771
static,3319188771
generalized coordinates,3319188771
generalized displacement,3319188771
generalized force,3319188771
gravity,3319188771
center of,3319188771
speciﬁc,3319188771
guided support,3319188771
hardening,3319188771
work- or strain-,3319188771
Heaviside step function,3319188771
hertz,3319188771
Hooke’s law,3319188771
uniaxial,3319188771
horsepower,3319188771
hyperstatic,3319188771
hypostatic,3319188771
improper supports,3319188771
incompressible,3319188771
internal constraint,3319188771
internal friction,3319188771
angle of,3319188771
coefﬁcient of,3319188771
Iosipescu shear test,3319188771
isostatic,3319188771
isotropic,3319188771
transversely,3319188771
isotropy,3319188771
transverse,3319188771
 263joint,3319188771
ball-and-socket,3319188771
Lamé coefﬁcients,3319188771
Lamé stress ellipsoid,3319188771
line of action,3319188771
linear elasticity,3319188771
link,3319188771
of a chain,3319188771
load,3319188771
critical,3319188771
dead,3319188771
design,3319188771
Euler,3319188771
live,3319188771
load factor,3319188771
longitudinal strain,3319188771
Macaulay brackets,3319188771
machine,3319188771
mass,3319188771
center of,3319188771
mass density,3319188771
material,3319188771
anisotropic,3319188771
auxetic,3319188771
brittle,3319188771
ductile,3319188771
rate-dependent,3319188771
rate-independent,3319188771
Maxwell–Betti reciprocal theorem,3319188771
mean stress,3319188771
mechanics,3319188771
solid,3319188771
mechanism,3319188771
collapse,3319188771
failure,3319188771
member,3319188771
force,3319188771
method of joints,3319188771
method of sections,3319188771
271INDEX 513,3319188771
elasticity,3319188771
linear,3319188771
elasticity matrix,3319188771
elongation diagram,3319188771
energy,3319188771
complementary,3319188771
conservation of,3319188771
 principle,3319188771
elastic,3319188771
free,3319188771
thermal,3319188771
equilibrium,3319188771
deﬁnition,3319188771
equation(s),3319188771
local,3319188771
stable,3319188771
unstable,3319188771
Euler load,3319188771
Euler’s laws,3319188771
external constraint,3319188771
ﬁber,3319188771
neutral,3319188771
ﬁnite-element method,3319188771
ﬁrst variation,3319188771
ﬁxed support,3319188771
 68ﬂexibility,3319188771
axial,3319188771
ﬂexibility coefﬁcients,3319188771
ﬂexibility matrix,3319188771
ﬂexural rigidity,3319188771
effective,3319188771
force,3319188771
axial,3319188771
diagrams,3319188771
body,3319188771
central,3319188771
collinear,3319188771
concentrated,3319188771
concurrent,3319188771
contact,3319188771
deﬁnition,3319188771
distributed,3319188771
disturbing,3319188771
equal and opposite,3319188771
external,3319188771
frictional,3319188771
generalized,3319188771
intensity,3319188771
internal,3319188771
lever arm,3319188771
line of action,3319188771
moment arm,3319188771
restoring,3319188771
resultant,3319188771
shear,3319188771
force couple,3319188771
force method,3319188771
force system,3319188771
deﬁnition,3319188771
planar,3319188771
statically equivalent,3319188771
frame,3319188771
free energy,3319188771
free-body diagram,3319188771
frequency,3319188771
friction,3319188771
angle of kinetic,3319188771
 74512 INDEX,3319188771
simple,3319188771
chain rule,3319188771
chord,3319188771
bottom,3319188771
top,3319188771
cohesion,3319188771
column,3319188771
compatibility,3319188771
complementary energy,3319188771
bending,3319188771
 Euler–Bernoulli,3319188771
bending,3319188771
 pure,3319188771
compliance,3319188771
composite bar,3319188771
compound shaft,3319188771
conﬁguration,3319188771
conjugate,3319188771
conservation of energy,3319188771
constraint,3319188771
external,3319188771
internal,3319188771
continuum,3319188771
coordinates,3319188771
generalized,3319188771
coplanar,3319188771
forces,3319188771
Coulomb’s law,3319188771
couple,3319188771
creep,3319188771
critical load,3319188771
cross product,3319188771
crystalline,3319188771
curvature,3319188771
radius,3319188771
curve,3319188771
inclination,3319188771
deformation,3319188771
degrees of freedom,3319188771
internal,3319188771
 69design,3319188771
deviatoric,3319188771
diagram,3319188771
axial-force,3319188771
bending-moment,3319188771
shear-force,3319188771
dilatation,3319188771
dimensionless,3319188771
dipole function,3319188771
Dirac delta function,3319188771
direction cosines,3319188771
dislocation,3319188771
displacement,3319188771
axial,3319188771
generalized,3319188771
inﬁnitesimal,3319188771
rigid,3319188771
vector,3319188771
virtual,3319188771
displacement ﬁeld,3319188771
displacement method,3319188771
distortion,3319188771
distribution (mathematics),3319188771
dot product,3319188771
ductile material,3319188771
eccentric loading,3319188771
effective centroid,3319188771
axial force,3319188771
effective ﬂexural rigidity,3319188771
eigenvalue,3319188771
eigenvector,3319188771
elastic curve,3319188771
elastic energy,3319188771
bending,3319188771
 Euler–Bernoulli,3319188771
elastic limit,3319188771
 468Index,3319188771
acceleration,3319188771
action-reaction law,3319188771
 seeNewton’s,3319188771
Third Law,3319188771
allowable stress,3319188771
Amontons–Coulomb law,3319188771
 see,3319188771
Coulomb’s law,3319188771
amorphous,3319188771
angle of repose,3319188771
angle of twist,3319188771
diagram,3319188771
angular velocity,3319188771
arch,3319188771
three-hinged or three-pinned,3319188771
rise,3319188771
span,3319188771
articulation,3319188771
axial rigidity,3319188771
effective,3319188771
axial stiffness,3319188771
bar,3319188771
composite,3319188771
deﬁnition,3319188771
beam,3319188771
cantilever,3319188771
composite,3319188771
continuous,3319188771
deﬁnition,3319188771
initially curved,3319188771
simply supported,3319188771
beam-column,3319188771
bendingpure,3319188771
Bernoulli–Euler beam theory,3319188771
biaxial stress,3319188771
bifurcation,3319188771
body,3319188771
continuous,3319188771
deﬁnition,3319188771
deformable,3319188771
ﬁnite,3319188771
homogeneous,3319188771
overconstrained,3319188771
rigid,3319188771
three-force,3319188771
two-force,3319188771
underconstrained,3319188771
body force,3319188771
Brazilian test,3319188771
buckling,3319188771
mode,3319188771
built-in support,3319188771
bulk modulus,3319188771
cable,3319188771
catenary,3319188771
sag,3319188771
Cartesian coordinate system,3319188771
basis,3319188771
Castigliano’s theorems,3319188771
Cauchy tetrahedron,3319188771
Cauchy’s equations,3319188771
center of gravity,3319188771
center of mass,3319188771
centroid,3319188771
effective (axial force),3319188771
chain,3319188771
J. Lubliner and P. Papadopoulos,3319188771
 Introduction to Solid Mechanics:,3319188771
An Integrated Approach ,3319188771
D O I1 0 . 1 0 0 7 / 9 7 8 - 1 - 4 6 1 4 - 6 7 6 8 - 7 ,3319188771
©Springer Science+Business Media New York 2014511,3319188771
I-12 Index,470565144
Twist,470565144
 angle of,470565144
 117Two-dimensional stress,470565144
 410. See also Plane stressTwo-force member,470565144
 defined,470565144
 74Two square stress elements,470565144
 429–430maximum in-plane shear stress  element,470565144
 429–430principal stress element,470565144
U,470565144
Ultimate load,470565144
 68Ultimate strengthdefined,470565144
 48for selected materials,470565144
 table,470565144
 708–709Uniaxial,470565144
 defined,470565144
 48Uniformly distributed loads,470565144
 167Unstable equilibrium,470565144
 569–570Unsymmetric bending,470565144
 251–259arbitrary cross sections,470565144
 252–254limitations,470565144
 255neutral axis orientation,470565144
 254principal axes of cross sections,470565144
 255symmetrical cross sections,470565144
 254–255Upset threads,470565144
 38U-shapedcross section,470565144
 301groove,470565144
 261notch,470565144
V,470565144
Virtual internal forces,470565144
 642Virtual work,470565144
 636–641principle of,470565144
 638–641temperature changes and fabrication errors,470565144
 643Virtual-work methodapplied to beams,470565144
 649–657applied to trusses,470565144
 641–649applied to two-bar assembly,470565144
 639–641Volumetric strain,470565144
 481von Mises,470565144
 Richard Edler,470565144
 563von Mises equivalent stress,470565144
 563von Mises yield criterion,470565144
 559W,470565144
Warping of cross sections in shaft due to torsion,470565144
 117Watt,470565144
 defined,470565144
 138Weak axis,470565144
 222Web,470565144
 defined,470565144
 222Wedge-shaped stress element,470565144
 430–431Wheatstone bridge,470565144
 474Wide-flange sections (W-shapes),470565144
 691–694Wide-flange shape beam,470565144
 221–222Wind load,470565144
 57Wood,470565144
 typical properties of,470565144
 710Workdefined,470565144
 608related to axial member,470565144
 634related to flexural member,470565144
 634units of,470565144
 609Work–energy method,470565144
 for single loads,470565144
 633–636Work hardening,470565144
Y,470565144
Yield,470565144
 48Yielding,470565144
 defined,470565144
 43–44Yield point,470565144
 defined,470565144
 43–44Yield strengthdefined,470565144
 44for selected materials,470565144
 table,470565144
 708–709Yield stress,470565144
 59Young’s modulus,470565144
Z,470565144
0.2% offset method for yield strength,470565144
bindex_EVALC.indd   12 20/12/19   2:32 PMIndex I-11,470565144
Stress distributionnormal stress,470565144
 245shear stress,470565144
 289Stress elementdefined,470565144
 407equilibrium of,470565144
 408–409generating,470565144
 410–412Stress invariance,470565144
 428Stress invariants,470565144
 417Stress–strain diagram,470565144
 40–48Stress–strain equations,470565144
 for isotropic materials,470565144
  478–485Stress trajectories,470565144
 531–533Stress transformationdefined,470565144
 416equations,470565144
 422equilibrium method for plane,470565144
 413–415general equations of plane,470565144
 415–421results,470565144
 429–435and sign conventions,470565144
 417–418Strong axis,470565144
 222Structural shapes,470565144
 standard,470565144
 691–702Structural tees (T-shapes),470565144
 697–698Superposition,470565144
 principle,470565144
 590. See also Principle of superpositionSuperposition method,470565144
 357–374applied to propped cantilever beam,470565144
 391applying,470565144
 359–374for combined loadings,470565144
 543for curved bars,470565144
 268–269for statically determinate beams,470565144
 357–374for statically indeterminate beams,470565144
 390–403Support settlement,470565144
 336Symmetry conditions,470565144
T,470565144
Table(s)of deflection and slopes of beams,470565144
 704–705of discontinuity functions,470565144
 198–199of properties of materials,470565144
 708–709of properties of plane figures,470565144
 672of properties of rolled-steel shapes,470565144
 691–702of properties of wood construction materials,470565144
 710Tangential stress,470565144
 518Tee shape,470565144
 223Temperature effects,470565144
 492–494Tensile normal stress,470565144
 437Tensile strain,470565144
 207Tensile stress,470565144
 121Tension forces,470565144
 defined,470565144
 2Tension stress,470565144
 466–468Tension test,470565144
 37–40Theories of failuremaximum-distortion-energy,470565144
 559–566maximum-normal-stress,470565144
 563–564maximum-shear-stress,470565144
 558–559Mises equivalent stress,470565144
 563Mohr’s failure criterion,470565144
 564–565Thermal expansioncoefficient,470565144
 for selected materials,470565144
 table,470565144
 708–709coefficient of,470565144
 35Thermal strain,470565144
 35Thermal stress,470565144
 102Thick-walled cylinderscircumferential stress in,470565144
 512deformations in,470565144
 517–518radial stress in,470565144
 512stress in,470565144
 509–517Thick-walled pressure vesselsdeformations in,470565144
 517–518equations,470565144
 714–715stress in,470565144
 509–517Thin-walled cylindrical pressure  vessels,470565144
 502–505stresses on the inner surface,470565144
 505stresses on the outer surface,470565144
 504–505Thin-walled pressure vessels,470565144
 499–500cylindrical,470565144
 502–506equations,470565144
 714spherical,470565144
 500–502strains in,470565144
 505–506Thin-walled sectionsclosed,470565144
 308–319shear flow in,470565144
 305–308shear stress in,470565144
 303–305torsion,470565144
 161–163Thin-walled spherical pressure vessels,470565144
 500–502stresses on the inner surface,470565144
 502stresses on the outer surface,470565144
 501–502Three-dimensional stress analysisand Mohr’s circle,470565144
 458Torque,470565144
 defined,470565144
 115Torque–rotation diagram,470565144
 615Torque–twist relationship,470565144
 152Torsionof circular shafts,470565144
 115–132equations for,470565144
 711–712of noncircular solid sections,470565144
 158–161of rectangular bars,470565144
 158–161of thin-walled hollow sections,470565144
 161–163Torsional deformations,470565144
 614–616Torsional loading,470565144
 155–157Torsional shear strainin circular sections,470565144
 117–118in noncircular solid sections,470565144
 158–161Torsional shear stressin circular sections,470565144
 118–120in noncircular sections,470565144
 158–161Transformation equationsfor plane strain,470565144
 461–465of plane stress,470565144
 415–421for shear strain,470565144
 463and sign conventions,470565144
 417–418for three-dimensional stress,470565144
 452Transformed cross section,470565144
 236–240defined,470565144
 238Transformed section,470565144
 238Transformed-section method,470565144
 236–244Transverse deformations,470565144
 208Transverse load,470565144
 205Transverse shear stress,470565144
 281Transverse strain,470565144
 49Tresca,470565144
 H. E.,470565144
 558Tresca criterion,470565144
 558Tresca–Guest yield surface,470565144
 558Triaxial stress,470565144
 505True stress,470565144
bindex_EVALC.indd   11 20/12/19   2:32 PMI-10 Index,470565144
Statically indeterminate memberswith axial loads,470565144
 88–101with torsional loads,470565144
 142–155Stem,470565144
 defined,470565144
 223Step function,470565144
 194Stiffness,470565144
 575Stiffness measure,470565144
 42Strainabsolute maximum shear,470565144
 475axial,470565144
 560compressive,470565144
 28defined,470565144
 26flexural,470565144
 207–208in-plane shear,470565144
 466–468lateral,470565144
 49longitudinal,470565144
 49normal,470565144
 26out-of-plane direction,470565144
 475plane,470565144
 470–472pressure vessels,470565144
 505–506principal,470565144
 466–468principal,470565144
 by Mohr’s circle,470565144
 470–472shear,470565144
 158–160tensile,470565144
 207in thin-walled pressure vessels,470565144
 505–506torsional shear,470565144
 158–160total,470565144
 35transverse,470565144
 49units,470565144
 32Strain element,470565144
 defined,470565144
 459Strain energy,470565144
 609–610for axial loadings,470565144
 559–563elastic,470565144
 560–561Strain-energy density,470565144
 610–612for normal stress,470565144
 610–611for shear stress,470565144
 612Strain gages,470565144
 474–475Strain hardening,470565144
 48Strain invariance,470565144
 464Strain rosettes,470565144
 475Strain transformation equations,470565144
 461–463vs. stress transformation equations,470565144
 463Strain transformation results,470565144
  presentation of,470565144
 468–469Strengthultimate,470565144
 48ultimate,470565144
 of selected materials,470565144
 table,470565144
 708–709yield,470565144
 44yield,470565144
 of selected materials,470565144
 table,470565144
 708–709Strength limit states,470565144
 69Stress. See also specific types of stressesabsolute maximum shear,470565144
 427–428allowable,470565144
 61average normal,470565144
 110average shear,470565144
 162axial,470565144
 601bearing,470565144
 60bending,470565144
 212biaxial,470565144
 563circumferential,470565144
 509–525compression,470565144
 600compressive,470565144
 600critical buckling,470565144
 574–575defined,470565144
 2Euler buckling,470565144
 574–575flexural,470565144
 234–244at general point in an arbitrarily loaded body,470565144
  406–408hoop,470565144
 502–505hydrostatic,470565144
 561in-plane shear,470565144
 505limitations,470565144
 246longitudinal,470565144
 516–517maximum normal,470565144
 563–564maximum on cross sections,470565144
 214–215maximum shear,470565144
 541–543maximum shear,470565144
 by Mohr’s circle,470565144
 439maximum shear stress,470565144
 439minimum normal stress,470565144
 423nominal,470565144
 260normal,470565144
 493compression,470565144
 600compressive,470565144
 600defined,470565144
 2–3and hydrostatic stress state,470565144
 482maximum,470565144
 423on maximum in-plane shear stress surfaces,470565144
 427minimum,470565144
 423on oblique plane,470565144
 452–453sign convention for,470565144
 437stress invariance,470565144
 417stress invariants,470565144
 417tensile,470565144
 121tension,470565144
 466–468plane (See Plane stress)principal,470565144
 422–428defined,470565144
 423in-plane,470565144
 425magnitude of,470565144
 453–456by Mohr’s circle,470565144
 435–451orientation of,470565144
 453–456radial,470565144
 510–517residual,470565144
 593resultant,470565144
 452–453resultant forces produced by bending,470565144
 272–277shear (See Shear stress)sign conventions,470565144
 408tangential,470565144
 518tensile,470565144
 121thermal,470565144
 102in thick-walled cylinders,470565144
 509–517torsional shear,470565144
 158–160triaxial,470565144
 561true,470565144
 45two-dimensional,470565144
 410units,470565144
 3–4yield,470565144
 59Stress concentrationunder axial loadings,470565144
 110–114defined,470565144
 259under flexural loadings,470565144
 259–262under torsional loadings,470565144
 155–157Stress-concentration factorsfor circular shafts,470565144
 155–157for flat bars,470565144
 261Stress cubic equation,470565144
bindex_EVALC.indd   10 20/12/19   2:32 PMIndex I-9,470565144
in thin-walled sections,470565144
 305–308in thin-walled tubes,470565144
 161–163Shear forcedefined,470565144
 273diagrams,470565144
 194–204equations for,470565144
 712graphical method for,470565144
 176–193locating key points on,470565144
 183relationship to load and bending moment,470565144
 176–182rules for,470565144
 181–182sign conventions for,470565144
 168steps for constructing,470565144
 182–183Shear-force equation,470565144
 203Shear keys,470565144
 11–12Shear modulusdefined,470565144
 49relationship to elastic modulus,470565144
 480for selected materials,470565144
 table,470565144
 708–709Shear strain,470565144
 460–466absolute maximum,470565144
 475defined,470565144
 32maximum in-plane,470565144
 466–469measuring experimentally,470565144
 32relationship to shear stress,470565144
 480sign conventions for,470565144
 464torsionalin circular sections,470565144
 117–118of noncircular solid sections,470565144
 158–161transformation equations,470565144
 463Shear stress,470565144
 530–533. See also Stressabsolute maximum,470565144
 427–428in beams,470565144
 280–282of circular cross section,470565144
 288–289of rectangular cross section,470565144
 284–288commutative,470565144
 409defined,470565144
 408direct shear,470565144
 8–9equality on perpendicular planes,470565144
 20equilibrium on,470565144
 409formula,470565144
 277–294horizontal,470565144
 530–531in circular cross sections,470565144
 288–289in flanged sections,470565144
 289in rectangular sections,470565144
 284–285in-plane,470565144
 505magnitude of,470565144
 456–458maximum,470565144
 513maximum in-plane,470565144
 425–427nominal,470565144
 156on oblique plane,470565144
 452–453orientation of,470565144
 456–458out-of-plane,470565144
 501–505positive vs. negative,470565144
 408on principal planes,470565144
 424relationship to shear strain,470565144
 480sign convention,470565144
 437strain-energy density for,470565144
 612in thin-walled members,470565144
 302–319torsionalin circular sections,470565144
 118–120in noncircular sections,470565144
 158–161transformation equations,470565144
 416transverse,470565144
 532in circular cross sections,470565144
 288–289in flanged sections,470565144
 289in rectangular sections,470565144
 284–285units of,470565144
 611in webs of flanged beams,470565144
 289Shell,470565144
 500Shell structures,470565144
 500Short columns,470565144
 593–594Short leg,470565144
 223Shrink-fit,470565144
 521Sign conventionfor angle of twist,470565144
 125for beam deflections,470565144
 334for bending moments,470565144
 213bending-movement,470565144
 334for curvature,470565144
 208for deformation,470565144
 75for flexural strain,470565144
 207–208for internal bending moment,470565144
 213for internal shear force,470565144
 168for internal torques,470565144
 124–125for Mohr’s circle (stress),470565144
 437for normal strains,470565144
 464normal stress,470565144
 417for normal stresses,470565144
 437for shear-force and bending-moment diagrams,470565144
 168for shear strains,470565144
 464shear stress,470565144
 418for shear stresses,470565144
 437and stress transformation,470565144
 417–421for torsional rotation angles,470565144
 125and transformation equations,470565144
 417–418Significant digits,470565144
 4Similar triangles,470565144
 29Simple beam,470565144
 defined,470565144
 167Simply supported beamdefined,470565144
 167deflection formulas,470565144
 704Single shear,470565144
 defined,470565144
 8Singularity functions,470565144
 194for concentrated forces,470565144
 195–196for concentrated moments,470565144
 195–196Slenderness ratio,470565144
 defined,470565144
 583Slipping,470565144
 558Snow load,470565144
 57Solid circular cross section,470565144
 288–289Solid circular cylinderexternal pressure on,470565144
 516radial displacement for external  pressure  on,470565144
 518Spherical pressure vessels,470565144
 500–502Mohr’s circle for,470565144
 501–502Stability failure,470565144
 568Stable beam,470565144
 378Stable equilibrium,470565144
 568–570State of stress,470565144
 407Statically indeterminate beamsdefined,470565144
 378by integration methods,470565144
 379–384overview,470565144
 377and superposition method,470565144
 390–403types of,470565144
 378–379use of discontinuity functions for,470565144
bindex_EVALC.indd   9 20/12/19   2:32 PMI-8 Index,470565144
Principal moments of inertia,470565144
 682–686by Mohr’s circle,470565144
 686–689Principal planes,470565144
 422–423of bending,470565144
 255of cross sections,470565144
 255defined,470565144
 423shear stress on,470565144
 424Principal strains,470565144
 466–468by Mohr’s circle,470565144
 470–472Principal stresses,470565144
 422–428. See also Stressdefined,470565144
 423general calculation procedures,470565144
 532–533in-plane,470565144
 425magnitude of,470565144
 453–456by Mohr’s circle,470565144
 435–451orientation of,470565144
 453–456Principle of superposition,470565144
 590applied to beam deflections,470565144
 358conditions valid for beam deflections,470565144
 358defined,470565144
 357Prismatic,470565144
 defined,470565144
 81Prismatic beams of arbitrary cross section,470565144
 252–254Probability concepts,470565144
 65–68Product of inertia,470565144
 680–682defined,470565144
 253parallel-axis theorem for,470565144
 596in unsymmetrical bending,470565144
 253Projected area,470565144
 60Propertiesof an area,470565144
 671–689angle shapes (L shapes),470565144
 701–702channel sections,470565144
 695–696hollow structural sections (HSS shapes),470565144
 699–700metals,470565144
 708–709of plane figures,470565144
 672wood,470565144
 710W-shapes (wide-flange sections),470565144
 691–694WT-shapes,470565144
 697–698Proportional limit,470565144
 40–41Propped cantilever beam,470565144
 378superposition method applied to,470565144
 391Punching shear,470565144
 12Pure bending,470565144
Q,470565144
Q section property,470565144
 295first moment of area,470565144
 282–283identifying proper area for,470565144
R,470565144
Radial displacement,470565144
 517–518for external pressure,470565144
 518for internal pressure only,470565144
 518Radial interference,470565144
 522Radial stress,470565144
 510–517in thick-walled cylinder,470565144
 512Radius of curvature,470565144
 defined,470565144
 207Radius of gyration,470565144
 defined,470565144
 574Ramp function,470565144
 194Rankine,470565144
 W. J. M.,470565144
 563Rankine’s theory,470565144
 563Recovery,470565144
 elastic,470565144
 43Rectangular cross sections,470565144
 531Redundant reactions,470565144
 390Redundants,470565144
 378Released beam,470565144
 390Reliability analysis,470565144
 66Residual strain,470565144
 43Residual stress,470565144
 593Resistance,470565144
 in LRFD,470565144
 65Resistance strain gage,470565144
 474Restoring moment,470565144
 569Resultant forces produced by bending stresses,470565144
  272–277Resultant stress,470565144
 452–453Rigid bar,470565144
 defined,470565144
 28Rigid-bar transverse deflections,470565144
 29Rigid-body displacement,470565144
 defined,470565144
 26Rigid element,470565144
 defined,470565144
 4Rigidity,470565144
 modulus ofdefined,470565144
 118relationship to elastic modulus,470565144
 49for selected materials,470565144
 table,470565144
 708–710Roller supports,470565144
 defined,470565144
 166Rosette analysis,470565144
 473–475Rotation,470565144
 angle of,470565144
 333Rotation angle,470565144
 134–137sign convention for,470565144
 125–132Rotation speed,470565144
 134rpm,470565144
 defined,470565144
 139S,470565144
Safetyaddressing,470565144
 58factor of,470565144
 59in AISC column formulas,470565144
 593–594Saint-Venant’s Principle,470565144
 246Saint-Venant’s theory of torsion,470565144
 158Secant formula,470565144
 600Second moment of area,470565144
 675Section modulus,470565144
 230–233Section plane,470565144
 defined,470565144
 2Serviceability limit states,470565144
 69Service loads,470565144
 defined,470565144
 58Shaft,470565144
 defined,470565144
 115Shear,470565144
 directdouble,470565144
 10punching,470565144
 12single,470565144
 8Shear area,470565144
 9Shear centerfor channel section,470565144
 320–323defined,470565144
 319location,470565144
 determination of,470565144
 323of thin-walled open sections,470565144
 319–330Shear coupling coefficients,470565144
 495Shear distributionin rectangular cross section,470565144
 284–285shear stress in,470565144
 290Shear flowin built-up beams,470565144
 294–302in closed sections,470565144
 308–309defined,470565144
 295due to torsion,470565144
 161–163formula,470565144
 295in open sections,470565144
bindex_EVALC.indd   8 20/12/19   2:32 PMIndex I-7,470565144
N,470565144
Necking,470565144
 48Negative area,470565144
 673Negative internal bending moment,470565144
 213Net section,470565144
 111Neutral axis,470565144
 295for curved bars,470565144
 264–265inclination of,470565144
 254location,470565144
 245orientation,470565144
 254Neutral equilibrium,470565144
 579Neutral surface,470565144
 236defined,470565144
 209location of,470565144
 210–211Nominal depth,470565144
 222–223Nominal stress,470565144
 260Noncircular memberstorsion of solid,470565144
 158–161torsion of thin-walled hollow,470565144
 161–163Nonlinear strain,470565144
 263Nonuniform bending,470565144
 215Normal strainaverage,470565144
 27Cartesian components,470565144
 460defined,470565144
 26flexural,470565144
 207–208maximum and minimum,470565144
 466–468measuring experimentally,470565144
 28out-of-plane,470565144
 485at a point,470565144
 27in pressure vessels,470565144
 505–506principal,470565144
 466–468sign convention,470565144
 464transformation,470565144
 461–465Normal stress,470565144
 406. See also Stressaxial,470565144
 72–73in beams,470565144
 208–220compressive,470565144
 3defined,470565144
 2–3eccentric axial load,470565144
 244flexural,470565144
 208–212and hydrostatic stress state,470565144
 482location of neutral surface,470565144
 210–211maximum and minimum,470565144
 423on maximum in-plane shear stress surfaces,470565144
 427moment-curvature relationship,470565144
 211–212nominal,470565144
 110on oblique plane,470565144
 452–453in pressure vessels,470565144
 500–502Saint-Venant’s principle,470565144
 72–74sign convention for,470565144
 437stress invariance,470565144
 417stress invariants,470565144
 417and temperature changes,470565144
 492tensile,470565144
 3and volume changes,470565144
 480–482Notch,470565144
 260Notional failure rate,470565144
O,470565144
Offset method for yield strength,470565144
 44Orthotropic materials,470565144
 494–497Out-of-plane direction,470565144
 strains in,470565144
 475Out-of-plane shear stress,470565144
 501–505Overhanging beam,470565144
 defined,470565144
 167Overload,470565144
 defined,470565144
 58P,470565144
Parallel-axis theoremdefined,470565144
 676for products of inertia,470565144
 596Percent elongationdefined,470565144
 47of selected materials,470565144
 table,470565144
 708–709Percent reduction in area,470565144
 47Perfectly plastic,470565144
 44Permanent set,470565144
 43Pin-ended columns,470565144
 570–578Pinned-pinned column,470565144
 587–588Euler buckling load for,470565144
 581Pin support,470565144
 defined,470565144
 165Plane of bendingdefined,470565144
 251loads are applied in,470565144
 319longitudinal,470565144
 319Plane strain,470565144
 460–473equations,470565144
 713–714transformation of,470565144
 461–465Plane stress,470565144
 517. See also  Stressdefined,470565144
 410equations,470565144
 713for Mohr’s circle,470565144
 435–451transformation equations,470565144
 416–417transformationsequilibrium method for,470565144
 413–415general equations of,470565144
 415–421Plastic behavior,470565144
 43Plastic deformation,470565144
 43Poisson’s ratio,470565144
 481–482and Lamé solution,470565144
 511–512major,470565144
 495minor,470565144
 495Polar moment of inertiadefined,470565144
 675parallel-axis theorems for,470565144
 676Positive bending moment,470565144
 266Positive internal bending moment,470565144
 213Positive internal shear force,470565144
 168Positive slope,470565144
 177Potential energy,470565144
 607Powerdefined,470565144
 138units,470565144
 138Power transmission shafts,470565144
 138–139Press-fit,470565144
 521Pressurecontact,470565144
 522hydrostatic,470565144
 482internal and external,470565144
 512–517Pressure vessels,470565144
 499–525thin walled,470565144
 499–500Principal angles,470565144
 423Principal axescross sections,470565144
 255defined,470565144
bindex_EVALC.indd   7 20/12/19   2:32 PMI-6 Index,470565144
Limit states,470565144
 69Linearly distributed loads,470565144
 167Live load,470565144
 57Loadcentric,470565144
 19centric axial,470565144
 244combinations,470565144
 68–69concentrated,470565144
 167critical buckling,470565144
 575dead,470565144
 56–57defined,470565144
 56diagram (See Load diagram)distributed,470565144
 167eccentric axial,470565144
 244Euler buckling,470565144
 573–574live,470565144
 57punching shear,470565144
 12service,470565144
 58sheardouble,470565144
 10punching,470565144
 12single,470565144
 8snow,470565144
 57torsional,470565144
 155–157transverse,470565144
 205types of,470565144
 56–57ultimate,470565144
 68wind,470565144
 57Load and resistance factor design (LRFD),470565144
  65–69Load–deflection diagram,470565144
 590Load–deformation diagram,470565144
 609Load–deformation plot,470565144
 42Load diagram,470565144
 178steps for constructing,470565144
 182Load equations,470565144
 348–350Load factor,470565144
 68Load functionsusing discontinuity functions,470565144
 196–200Local instability of columns,470565144
 595Long columns,470565144
 593–595Longitudinal axis,470565144
 206Longitudinal plane of symmetry,470565144
 206Longitudinal strain,470565144
 49Longitudinal stress,470565144
 516–517in cylinder with closed ends,470565144
 516–517Long leg,470565144
 223Low-velocity impact,470565144
 620LRFD (load and resistance factor design),470565144
  65–69Lüder’s lines,470565144
M,470565144
Macaulay brackets,470565144
 194Macaulay functionscanceling,470565144
 197constants of integration,470565144
 196graphs of,470565144
 195integrals of,470565144
 196ramp function,470565144
 194step function,470565144
 194Major diameter,470565144
 156Major Poisson’s ratio,470565144
 495Materialsselected properties,470565144
 table,470565144
 708–710Matrix,470565144
 in composite materials,470565144
 495Maximum-distortion-energy theory of failure,470565144
 559–566Maximum in-plane shear strain,470565144
 466–469Maximum in-plane shear stressmagnitude,470565144
 425–426normal stresses on,470565144
 427orientation of,470565144
 425Maximum normal stress,470565144
 499Maximum-normal-stress theory of failure,470565144
 563–564Maximum shear stress,470565144
 513Maximum stress,470565144
 512–516for external pressure only,470565144
 516for internal pressure only,470565144
 514–515Mechanics of materials,470565144
 1–2Median line,470565144
 thin-walled tubes,470565144
 162Method of sections,470565144
 defined,470565144
 2Method of superposition. See  Superposition methodMicrostrain,470565144
 defined,470565144
 27Minimum normal stress,470565144
 423Minor diameter,470565144
 156Minor Poisson’s ratio,470565144
 495Mises equivalent stress,470565144
 563Mode shape,470565144
 573Modular ratio,470565144
 238Modulus,470565144
 defined,470565144
 482Modulus of elasticitydefined,470565144
 41–42Hooke’s Law and,470565144
 49and Lamé solution,470565144
 511–512relationship to shear modulus,470565144
 480for selected materials,470565144
 table,470565144
 708–710Modulus of resilience,470565144
 611Modulus of rigiditydefined,470565144
 49relationship to elastic modulus,470565144
 49for selected materials,470565144
 table,470565144
 708–710Modulus of toughness,470565144
 611Mohr,470565144
 Otto Christian,470565144
 564Mohr’s circleapplication of,470565144
 458basic construction of,470565144
 437–440for cylindrical pressure vessels,470565144
 504–505equation,470565144
 derivation of,470565144
 436for principal moments of inertia,470565144
 686–689for spherical pressure vessels,470565144
 501–502for strains,470565144
 470–472for stresses,470565144
 435–451and three-dimensional stress  analysis,470565144
 458Mohr’s failure criterion,470565144
 564–565applied to a plane stress state,470565144
 564–565Moment arm,470565144
 211Moment connection,470565144
 166Moment–curvature equation,470565144
 212Moment–curvature relationship,470565144
 332in beams of two materials,470565144
 235in differential equation for column buckling,470565144
 579Moment of inertia,470565144
 675–679circular cross sections,470565144
 550defined,470565144
 211Moment–rotation angle diagram,470565144
bindex_EVALC.indd   6 20/12/19   2:32 PMIndex I-5,470565144
Flexure formula,470565144
 712Force–deformation relationship,470565144
 95Force-fit,470565144
 521Force–temperature–deformation  relationship,470565144
 102Fracture stress,470565144
 defined,470565144
 48Free-body diagram (FBD) 179–180,470565144
 337–338for plane stress transformations,470565144
 414for shear stresses on oblique planes of shafts,470565144
 120–122for stresses in cylindrical pressure vessels,470565144
 503for stresses in spherical pressure vessels,470565144
 500for stresses in thick-walled cylinders,470565144
 510for stresses on inclined planes,470565144
 17–20Frequency,470565144
 shaft rotation,470565144
 139FS (factor of safety),470565144
G,470565144
Gage factor (GF),470565144
 474Gage length,470565144
 50Gage pressures,470565144
 501Gear pitch,470565144
 134Gear ratio,470565144
 134Gears,470565144
 133–134General calculation proceduresfor maximum shear stress in a beam,470565144
 532–533for principal stresses in a beam,470565144
 532–533General combined loadings,470565144
 540–543calculation procedures,470565144
 541–543Generalized Hooke’s law,470565144
 474equations,470565144
 714for isotropic materials,470565144
 478–485and Lamé solution,470565144
 511–512for orthotropic materials,470565144
 494–497and temperature effects,470565144
 492–494General state of stress,470565144
 452–458Geometry-of-deformation equationfor axial members,470565144
 106for torsion members,470565144
 152Graphical method,470565144
 defined,470565144
 182Groove,470565144
 260–261Guest,470565144
 J. J.,470565144
 558Gyration,470565144
 radius of,470565144
 defined,470565144
H,470565144
Hertz (Hz),470565144
 defined,470565144
 139High-velocity impact,470565144
 620Histogramof load effects,470565144
 65–66resistance,470565144
 66Hollow circular cross section,470565144
 289Hollow structural sections (HSS shapes),470565144
 699–700Homogeneous material,470565144
 defined,470565144
 81Hooke’s law,470565144
 474for biaxial state of stress,470565144
 484–485generalized,470565144
 for orthotropic materials,470565144
 494–497for general state of stress,470565144
 478–485for plane state of stress,470565144
 484–485for shear stress,470565144
 49and temperature effects on  generalized,470565144
 492–494for triaxial state of stress,470565144
 478–482for uniaxial state of stress,470565144
 49Hoop stress (circumferential stress),470565144
 502Horizontal deflection,470565144
 623Horizontal shear stress,470565144
 284–285Horsepower,470565144
 defined,470565144
 138HSS Shapes (Hollow Structural  Sections),470565144
 699–700Huber,470565144
 M. T.,470565144
 559Huber–von Mises–Hencky theory,470565144
 563Hydrostatic pressure,470565144
 482Hydrostatic stress,470565144
 561Hydrostatic stress state,470565144
 482Hz (Hetrz),470565144
 defined,470565144
 139I,470565144
Ideal columnbuckling of,470565144
 571defined,470565144
 570Impact,470565144
 defined,470565144
 57Impact factor,470565144
 622for freely falling weight,470565144
 622for weight moving horizontally,470565144
 623Impact forcefor freely falling weight,470565144
 622for weight moving horizontally,470565144
 623Impact load,470565144
 620–633of freely falling weight,470565144
 620–623of horizontally moving weight,470565144
 623Inclination of neutral axis,470565144
 254Indeterminacy,470565144
 degree of static,470565144
 378Inelastic strain,470565144
 42Inelastic strain energy,470565144
 610Inertia,470565144
 moment,470565144
 675–679Infinitesimal element,470565144
 480Inflection point,470565144
 582In-plane principal stresses,470565144
 425In-plane shear stress,470565144
 505Integration methods,470565144
 334–335double-integration method,470565144
 337–347statically indeterminate beams,470565144
 379–384Interaction formula,470565144
 601–602Interaction method,470565144
 601–602Interference fits,470565144
 520–522Intermediate columns,470565144
 593–595Internal force,470565144
 244Internal pressure,470565144
 517maximum stresses for,470565144
 514–515radial displacement for,470565144
 518Internal torque diagram,470565144
 125Internal work,470565144
 609Invariance,470565144
 464Isotropic materialsdefined,470565144
 35generalized Hooke’s law,470565144
J,470565144
Joint displacement,470565144
K,470565144
Keys,470565144
 shear,470565144
L,470565144
Lamé,470565144
 Gabriel,470565144
 509Lamé solution,470565144
 511–512Lateral bracing,470565144
 584–585Lateral strain,470565144
 49Legs,470565144
bindex_EVALC.indd   5 20/12/19   2:32 PMI-4 Index,470565144
Ductile materials,470565144
 558–563maximum-distortion-energy theory,470565144
 559–566maximum-shear-stress theory,470565144
 558–559Mises equivalent stress,470565144
 563Ductility,470565144
 45–47defined,470565144
 39measures,470565144
 47of selected materials,470565144
 table,470565144
 708–709Dynamic force,470565144
 620Dynamic load,470565144
E,470565144
Eccentric axial load,470565144
 244bending due to,470565144
 244–251normal stresses due to,470565144
 245Eccentricity,470565144
 600–606Eccentricity ratio,470565144
 591–592Eccentric loading,470565144
 600–606Effective column length,470565144
 581–583Effective-length concept,470565144
 581–587Effective length factors,470565144
 583Effective-slenderness ratio,470565144
 defined,470565144
 593–595Elastic behavior,470565144
 defined,470565144
 48Elastic curvedefined,470565144
 332deflection,470565144
 derivatives of,470565144
 334–335differential equations,470565144
 332–335for columns,470565144
 579–580Elastic flexure formula,470565144
 212Elastic hysteresis,470565144
 560Elasticitydefined,470565144
 41theory of,470565144
 112Elastic limit,470565144
 defined,470565144
 43Elastic modulusdefined,470565144
 41–42Hooke’s Law and,470565144
 49and Lamé solution,470565144
 511–512relationship to shear modulus,470565144
 478–480for selected materials,470565144
 table,470565144
 708–710Elastic recovery,470565144
 43Elastic strain,470565144
 defined,470565144
 42Elastic strain energyfor axial deformation,470565144
 613–614for axial loading,470565144
 560due to distortion,470565144
 562due to hydrostatic stress,470565144
 559–562due to volume change,470565144
 561–562for flexural deformation,470565144
 616–619for torsional deformation,470565144
 614–616for triaxial loading,470565144
 561Elastic torsion formula,470565144
 defined,470565144
 120Elastoplastic material,470565144
 44Electrical-resistance strain gages,470565144
 473–475Elongationaxially loaded members,470565144
 74–81Elongation,470565144
 percentdefined,470565144
 47of selected materials,470565144
 table,470565144
 708–709Empirical column formulas,470565144
 592End conditions,470565144
 for columns,470565144
 583Energy,470565144
 units of,470565144
 609Engineering stress,470565144
 45Epoxy materials,470565144
 495–497Equation(s)of elastic curve,470565144
 332load,470565144
 348–350of plane stress transformation,470565144
 415–421shear-force,470565144
 348–350stress transformation,470565144
 422Equilibrium,470565144
 in cylinders,470565144
 509–511Equivalent beam,470565144
 234–236Equivalent static load,470565144
 624Euler buckling load,470565144
 573–574Euler buckling stress,470565144
 574–575Euler’s formula,470565144
 573Extensometer,470565144
 38External pressure,470565144
 512–517maximum stresses for,470565144
 516radial displacement for,470565144
 518on solid circular cylinder,470565144
 516External work,470565144
F,470565144
Fabricated (built-up) beams,470565144
 shear in,470565144
 294–300Factor of safety (FS),470565144
 59Failure,470565144
 defined,470565144
 59Failure diagramfor maximum-distortion-energy,470565144
 562for maximum-shear-stress theory,470565144
 559Failure theoriesmaximum-distortion energy,470565144
 559–566maximum-normal-stress,470565144
 563–564maximum-shear-stress,470565144
 558–559Mises equivalent stress,470565144
 563Mohr’s Failure Criterion,470565144
 564–565Fastener force–spacing relationship,470565144
 296Fasteners,470565144
 295–296Fastener stress–spacing relationship,470565144
 296Fiber-reinforced epoxy materials,470565144
 496Fibers,470565144
 longitudinal,470565144
 206Fillets,470565144
 593First buckling mode,470565144
 573First moment of area,470565144
 282–283locating beam neutral surface,470565144
 210locating centroid of area,470565144
 671in parallel-axis theorem,470565144
 676Q section property,470565144
 295Fixed-end beam,470565144
 379Fixed-fixed beam,470565144
 379Fixed-pinned column,470565144
 579critical buckling load for,470565144
 582differential equation for,470565144
 580Fixed support,470565144
 defined,470565144
 166Flange,470565144
 defined,470565144
 222Flanged cross sections,470565144
 531Flexural deformation,470565144
 616–619Flexural loadingcombined with centric loading,470565144
 244–251combined with torsional loading,470565144
 540–556Flexural rigidity of beams,470565144
 212Flexural strains,470565144
 207–208Flexural stressesin beams of homogeneous materials,470565144
 208–220in beams of two materials,470565144
 234–244Flexure,470565144
bindex_EVALC.indd   4 20/12/19   2:32 PMIndex I-3,470565144
Composite areascentroid of,470565144
 673defined,470565144
 671moment of inertia of,470565144
 676Composite beams,470565144
 234–244Compression force,470565144
 defined,470565144
 2Compression stress,470565144
 600Compressive normal stress,470565144
 437Compressive stress,470565144
 600Concentrated loads,470565144
 167–170regions of,470565144
 179–180Concentrated moments,470565144
 638Concept of stress,470565144
 413Conservation of energyapplied to axial deformation,470565144
 610applied to impact load,470565144
 621applied to torsional deformation,470565144
 614–616defined,470565144
 633Constitutive relationships,470565144
 88Contact pressure,470565144
 522tube and jacket of different materials,470565144
 522Continuity conditions,470565144
 337Continuous beam,470565144
 379Contraction,470565144
 75Cosines,470565144
 456–457Coulomb’s theory,470565144
 558Critical buckling load,470565144
 575Critical buckling stress,470565144
 574–575Critical load,470565144
 573–574Cross section,470565144
 2–3Curvature,470565144
 332defined,470565144
 208radius of,470565144
 207Curved bars,470565144
 263–270Cylinders,470565144
 520–522with closed ends,470565144
 longitudinal stress  in,470565144
 516–517shrink fitted on a solid shaft,470565144
 522Cylindrical pressure vessels,470565144
 502–505Mohr’s circle for,470565144
D,470565144
Dead loads,470565144
 56–57Deflection,470565144
 beamsformulas for cantilever beams,470565144
 705formulas for simply supported beams,470565144
 704by integration methods,470565144
 334–335by integration of load equations,470565144
 348–350and integration of moment equation,470565144
 336–347by integration of shear-force  equations,470565144
 348–350by superposition methods,470565144
 357–374Deflection curve,470565144
 205Deformationaxial,470565144
 613–614in circular shafts,470565144
 122–124circumferential,470565144
 517–518in curved bars,470565144
 264defined,470565144
 26diagram,470565144
 559–560flexural,470565144
 616–619and hydrostatic stress state,470565144
 479–482plastic,470565144
 43radial,470565144
 511–512in thick-walled cylinders,470565144
 517–522torsional,470565144
 614–616Degree of static indeterminacy,470565144
 378Derivatives of elastic curve deflection,470565144
 334–335Designallowable stress,470565144
 58–59beam,470565144
 230–233columnAISC specifications,470565144
 593–594Aluminum Association  specifications,470565144
  594–595formulas for,470565144
 592–600NDS,470565144
 595load and resistance factor,470565144
 65–69Destabilizing moment,470565144
 569Diagramaxial-force,470565144
 78beam deflection,470565144
 334–335bending-moment,470565144
 167–204deformation,470565144
 559–560failure,470565144
 562free-body,470565144
 179–180internal torque,470565144
 125load-deflection,470565144
 590load–deformation,470565144
 609moment–rotation angle,470565144
 617rotation angle,470565144
 125shapes,470565144
 relationships among,470565144
 185–192shear-force,470565144
 168–176stress–strain,470565144
 40–48torque–rotation,470565144
 615Differential equation of the elastic curvefor beams,470565144
 332–335for columns,470565144
 579–580Digits,470565144
 significant,470565144
 4Dilatation,470565144
 482Direction cosines,470565144
 456–457Discontinuity expressions,470565144
 196–204Discontinuity functionsapplications of,470565144
 197–204constants of integration,470565144
 196–197integrals of,470565144
 196–197Macaulay functions,470565144
 194–195shear-force and bending-moment diagrams,470565144
  194–200singularity functions,470565144
 195–196statically determinate beams,470565144
 350–357table,470565144
 198–199use for statically indeterminate beams,470565144
 384–390Displacement,470565144
 defined,470565144
 25–26Displacement vector,470565144
 461–463Distortion,470565144
 defined,470565144
 26Distributed load,470565144
 defined,470565144
 167Distributed-load curve,470565144
 178–179Double-angle shape (2L),470565144
 223Double-integration method,470565144
 337–347boundary conditions,470565144
 336–337continuity conditions,470565144
 337defined,470565144
 336procedure for,470565144
 337–338symmetry conditions,470565144
 337Double shear,470565144
 defined,470565144
 10Doubly symmetric cross sections,470565144
  defined,470565144
bindex_EVALC.indd   3 20/12/19   2:32 PMI-2 Index,470565144
Bending-moment (continued)diagrams,470565144
 167–204discontinuity functions,470565144
 194–204applications of,470565144
 197–204constants of integration,470565144
 196–197integrals of,470565144
 196–204equations,470565144
 712graphical method for,470565144
 176–193Macaulay functions,470565144
 194–195maximum and minimum,470565144
 180positive,470565144
 266relationship to load and shear force,470565144
 177–182shapes,470565144
 relationships among diagram,470565144
 185–193sign conventions for,470565144
 334singularity functions,470565144
 195–196Bending strain,470565144
 234–235Bending stress (flexure stress)assumptions in flexure formula,470565144
 214in beams of homogeneous materials,470565144
 208–220in beams of two materials,470565144
 234–244in curved bars,470565144
 263–270economic sectionsselecting,470565144
 231standard structural steel shapes and,470565144
 231flexure formula,470565144
 214section modulus,470565144
 227in unsymmetric sections,470565144
 251Bernoulli,470565144
 Johann,470565144
 636Biaxial stress,470565144
 563Boundary conditionsfor beams,470565144
 336–337and bending-moment equation,470565144
 336for columns,470565144
 578–580defined,470565144
 336Brittle materials,470565144
 563–565maximum-normal-stress theory of failure,470565144
 563–564Mohr’s Failure Criterion,470565144
 564–565Bucklingdefined,470565144
 567effect of end conditions on column,470565144
 578–587equations,470565144
 715pin-ended columns,470565144
 570–578Built-up beams,470565144
 shear in,470565144
 294–302Bulk modulus,470565144
C,470565144
Cantilever beamdefined,470565144
 167deflection formulas,470565144
 705Castigliano,470565144
 Alberto,470565144
 658Castigliano’s first theorem,470565144
 658Castigliano’s second theorem,470565144
 658–670applied to beams,470565144
 665–670applied to trusses,470565144
 660–665development of,470565144
 658–660Center of curvature,470565144
 207–208Centric axial load,470565144
 244Centric loadingcombined with bending,470565144
 244–251combined with bending and torsion,470565144
 540–557combined with torsion,470565144
 528–530defined,470565144
 19stresses due to,470565144
 2–8Centroids of areas,470565144
 671–674Channel sections (C-shapes),470565144
 695–696Channel shape,470565144
 320–328Circular hole,470565144
 stress distribution near,470565144
 111–114Circular shaftsdeformations in,470565144
 117elastic torsion formula for,470565144
 120moment of inertia,470565144
 542normal stresses in,470565144
 121polar moment of inertia,470565144
 120shear stresses in,470565144
 118–119statically indeterminate,470565144
 142–155strains in,470565144
 117–118stress-concentration factors,470565144
 155–157transverse shear stress in,470565144
 288–289Circumferential stress (hoop stress),470565144
 509–525comparison of thin and thick-walled cylinders,470565144
  514–515in thick-walled cylinder,470565144
 512Clapeyron,470565144
 B. P. E.,470565144
 560Clapeyron’s theorem,470565144
 560Clip angle,470565144
 166Code calibration,470565144
 66Coefficient of thermal expansion,470565144
 35of selected materials,470565144
 table,470565144
 708–709Column(s)aluminum-alloy,470565144
 594–595buckling of pin-ended,470565144
 570–578centric loading of,470565144
 592–593critical load for,470565144
 573–574defined,470565144
 567derivation of,470565144
 588eccentricity ratio for,470565144
 591–592eccentric loading,470565144
 600–606effective length,470565144
 581–583effective length factors,470565144
 583effect of end conditions on,470565144
 578–587empirical formulas for,470565144
 592–600Euler’s formula,470565144
 573–574intermediate,470565144
 593–595local instability,470565144
 595long,470565144
 593–595short,470565144
 593–594slenderness ratio,470565144
 583structural steel,470565144
 593–594wood,470565144
 595Column-buckling model,470565144
 715Column formulasAISC,470565144
 593–594Aluminum Association,470565144
 594–595Euler,470565144
 573interaction,470565144
 601–602NDS,470565144
 595secant,470565144
 600structural steel,470565144
 593–594wood,470565144
 595Combined loadings,470565144
 410–411axial and torsional,470565144
 528–530centric,470565144
 flexural,470565144
 and torsional,470565144
 540–541centric and flexural,470565144
 244–251Compatibility equation,470565144
 392for axial members,470565144
 107for torsion members,470565144
bindex_EVALC.indd   2 20/12/19   2:32 PMI-1A,470565144
Absolute maximum shear strain,470565144
Absolute maximum shear stress,470565144
Actual depth,470565144
Algebraic distances,470565144
Allowable stress,470565144
 defined,470565144
Allowable stress design (ASD),470565144
Allowable stress method,470565144
American standard channels (C-shapes),470565144
Angle of rotation,470565144
Angle of twist,470565144
in circular shafts,470565144
defined,470565144
in noncircular sections,470565144
Angle sections (L-shapes),470565144
Angle shape,470565144
Angular rotation,470565144
Annular element,470565144
Arbitrarily loaded body,470565144
stress at general point in,470565144
Arbitrary cross section,470565144
defined,470565144
prismatic beams of,470565144
Area moment of inertia,470565144
ASD (allowable stress design),470565144
Aspect ratio,470565144
Assumptions,470565144
for bending due to eccentric axial load,470565144
in centric loading formula,470565144
in elastic curve equation,470565144
in flexure formula,470565144
in shearing stress formula,470565144
in torsion formula,470565144
for unsymmetric bending,470565144
Average normal strain,470565144
Axial deformation,470565144
Axial force,470565144
defined,470565144
diagram,470565144
Axial loading,470565144
Axially loaded members,470565144
Saint-Venant’s principle and,470565144
statically determinate,470565144
statically indeterminate,470565144
Axial strain,470565144
Axial stress,470565144
Axis. See Longitudinal axis,470565144
B,470565144
Beam deflections,470565144
diagrams,470565144
equations,470565144
statically determinate,470565144
by integration methods,470565144
by superposition methods,470565144
using discontinuity functions,470565144
 350–357statically indeterminate ,470565144
by integration methods,470565144
types of,470565144
using discontinuity functions for,470565144
Beam(s),470565144
 205. See also  specific beams,470565144
built-up,470565144
composite,470565144
continuous,470565144
cross-sectional dimensions of,470565144
defined,470565144
elastic curves for,470565144
equivalent,470565144
fixed-end,470565144
fixed-fixed,470565144
flexural stresses in,470565144
introductory design of,470565144
loads,470565144
neutral axis in,470565144
normal stresses in,470565144
principal stresses in a flexural  member,470565144
prismatic,470565144
 of arbitrary cross section,470565144
released,470565144
section modulus,470565144
shear and moment,470565144
shear flow in,470565144
shear stresses,470565144
of circular cross section,470565144
formula for,470565144
of rectangular cross section,470565144
in webs of flanged,470565144
shear stress formula for,470565144
stable,470565144
standard structural steel shapes for,470565144
supports,470565144
with symmetrical cross sections,470565144
types of,470565144
Beam table,470565144
Bearing stress,470565144
Behavior,470565144
elastic,470565144
plastic,470565144
Bend (flex),470565144
Bending,470565144
of curved bars,470565144
due to eccentric axial loading,470565144
nonuniform,470565144
plane of,470565144
pure,470565144
stresses,470565144
 resultant forces produced by,470565144
stress in beams,470565144
 analysis of,470565144
stress magnitudes,470565144
Bending-moment,470565144
boundary conditions,470565144
concentrated loads and moments,470565144
constructing shear force and,470565144
construction rules for shear force and,470565144
 180–182Index,470565144
bindex_EVALC.indd   1 20/12/19   2:32 PMCOPYRIGHTED MATERIAL,470565144
